p cnf 8 119
1 -2 -3 -4 0
-1 2 3 4 0
-1 2 3 -4 0
-1 2 -3 4 0
-1 -2 3 4 0
1 -2 3 4 0
1 -2 3 -4 0
1 -2 -3 4 0
-1 2 -3 -4 0
-1 -2 3 4 0
-1 -3 -5 0
1 2 3 -4 -5 -6 0
1 2 -3 4 5 6 0
1 2 -3 4 5 -6 0
1 2 -3 4 -5 6 0
1 2 -3 -4 5 6 0
1 -2 3 4 -5 -6 0
1 -2 3 -4 5 -6 0
1 -2 3 -4 -5 6 0
1 -2 -3 4 5 6 0
1 -2 -3 -4 -5 -6 0
-1 2 3 4 -5 -6 0
-1 2 3 -4 5 -6 0
-1 2 3 -4 -5 6 0
-1 2 -3 4 5 6 0
-1 2 -3 -4 -5 -6 0
-1 -2 3 4 5 -6 0
-1 -2 3 4 -5 6 0
-1 -2 3 -4 5 6 0
-1 -2 -3 4 -5 -6 0
-1 -2 -3 -4 5 -6 0
-1 -2 -3 -4 -5 6 0
-1 -2 -3 -4 -5 -6 0
1 2 3 -4 5 6 0
1 2 3 -4 5 -6 0
1 2 3 -4 -5 6 0
1 2 -3 4 -5 -6 0
1 2 -3 -4 5 6 0
1 -2 3 4 -5 -6 0
1 -2 3 -4 5 6 0
1 -2 -3 4 5 -6 0
1 -2 -3 4 -5 6 0
1 -2 -3 -4 -5 -6 0
-1 2 3 4 -5 -6 0
-1 2 3 -4 5 6 0
-1 2 -3 4 5 -6 0
-1 2 -3 4 -5 6 0
-1 2 -3 -4 -5 -6 0
-1 -2 3 4 5 -6 0
-1 -2 3 4 -5 6 0
-1 -2 3 -4 -5 -6 0
-1 -2 -3 4 5 6 0
-1 -2 -3 -4 5 -6 0
-1 -2 -3 -4 -5 6 0
-1 -2 -3 -4 -5 -6 0
-2 -4 -6 0
-3 -5 -7 0
3 4 5 -6 -7 -8 0
3 4 -5 6 7 8 0
3 4 -5 6 7 -8 0
3 4 -5 6 -7 8 0
3 4 -5 -6 7 8 0
3 -4 5 6 -7 -8 0
3 -4 5 -6 7 -8 0
3 -4 5 -6 -7 8 0
3 -4 -5 6 7 8 0
3 -4 -5 -6 -7 -8 0
-3 4 5 6 -7 -8 0
-3 4 5 -6 7 -8 0
-3 4 5 -6 -7 8 0
-3 4 -5 6 7 8 0
-3 4 -5 -6 -7 -8 0
-3 -4 5 6 7 -8 0
-3 -4 5 6 -7 8 0
-3 -4 5 -6 7 8 0
-3 -4 -5 6 -7 -8 0
-3 -4 -5 -6 7 -8 0
-3 -4 -5 -6 -7 8 0
-3 -4 -5 -6 -7 -8 0
3 4 5 -6 7 8 0
3 4 5 -6 7 -8 0
3 4 5 -6 -7 8 0
3 4 -5 6 -7 -8 0
3 4 -5 -6 7 8 0
3 -4 5 6 -7 -8 0
3 -4 5 -6 7 8 0
3 -4 -5 6 7 -8 0
3 -4 -5 6 -7 8 0
3 -4 -5 -6 -7 -8 0
-3 4 5 6 -7 -8 0
-3 4 5 -6 7 8 0
-3 4 -5 6 7 -8 0
-3 4 -5 6 -7 8 0
-3 4 -5 -6 -7 -8 0
-3 -4 5 6 7 -8 0
-3 -4 5 6 -7 8 0
-3 -4 5 -6 -7 -8 0
-3 -4 -5 6 7 8 0
-3 -4 -5 -6 7 -8 0
-3 -4 -5 -6 -7 8 0
-3 -4 -5 -6 -7 -8 0
-4 -6 -8 0
5 6 -7 8 0
5 6 -7 -8 0
5 -6 -7 8 0
-5 6 -7 8 0
-5 -6 7 -8 0
5 6 7 -8 0
5 6 -7 -8 0
5 -6 7 -8 0
-5 6 7 -8 0
-5 -6 -7 8 0
1 2 0
7 8 0
1 3 5 7 0
2 4 6 8 0
1 2 3 4 5 6 7 8 0
-1 -2 3 -4 -5 6 -7 -8 0
-1 -2 -3 4 5 -6 -7 -8 0
