p cnf 10 164
1 -2 -3 -4 0
-1 2 3 4 0
-1 2 3 -4 0
-1 2 -3 4 0
-1 -2 3 4 0
1 -2 3 4 0
1 -2 3 -4 0
1 -2 -3 4 0
-1 2 -3 -4 0
-1 -2 3 4 0
-1 -3 -5 0
1 2 3 -4 -5 -6 0
1 2 -3 4 5 6 0
1 2 -3 4 5 -6 0
1 2 -3 4 -5 6 0
1 2 -3 -4 5 6 0
1 -2 3 4 -5 -6 0
1 -2 3 -4 5 -6 0
1 -2 3 -4 -5 6 0
1 -2 -3 4 5 6 0
1 -2 -3 -4 -5 -6 0
-1 2 3 4 -5 -6 0
-1 2 3 -4 5 -6 0
-1 2 3 -4 -5 6 0
-1 2 -3 4 5 6 0
-1 2 -3 -4 -5 -6 0
-1 -2 3 4 5 -6 0
-1 -2 3 4 -5 6 0
-1 -2 3 -4 5 6 0
-1 -2 -3 4 -5 -6 0
-1 -2 -3 -4 5 -6 0
-1 -2 -3 -4 -5 6 0
-1 -2 -3 -4 -5 -6 0
1 2 3 -4 5 6 0
1 2 3 -4 5 -6 0
1 2 3 -4 -5 6 0
1 2 -3 4 -5 -6 0
1 2 -3 -4 5 6 0
1 -2 3 4 -5 -6 0
1 -2 3 -4 5 6 0
1 -2 -3 4 5 -6 0
1 -2 -3 4 -5 6 0
1 -2 -3 -4 -5 -6 0
-1 2 3 4 -5 -6 0
-1 2 3 -4 5 6 0
-1 2 -3 4 5 -6 0
-1 2 -3 4 -5 6 0
-1 2 -3 -4 -5 -6 0
-1 -2 3 4 5 -6 0
-1 -2 3 4 -5 6 0
-1 -2 3 -4 -5 -6 0
-1 -2 -3 4 5 6 0
-1 -2 -3 -4 5 -6 0
-1 -2 -3 -4 -5 6 0
-1 -2 -3 -4 -5 -6 0
-2 -4 -6 0
-3 -5 -7 0
3 4 5 -6 -7 -8 0
3 4 -5 6 7 8 0
3 4 -5 6 7 -8 0
3 4 -5 6 -7 8 0
3 4 -5 -6 7 8 0
3 -4 5 6 -7 -8 0
3 -4 5 -6 7 -8 0
3 -4 5 -6 -7 8 0
3 -4 -5 6 7 8 0
3 -4 -5 -6 -7 -8 0
-3 4 5 6 -7 -8 0
-3 4 5 -6 7 -8 0
-3 4 5 -6 -7 8 0
-3 4 -5 6 7 8 0
-3 4 -5 -6 -7 -8 0
-3 -4 5 6 7 -8 0
-3 -4 5 6 -7 8 0
-3 -4 5 -6 7 8 0
-3 -4 -5 6 -7 -8 0
-3 -4 -5 -6 7 -8 0
-3 -4 -5 -6 -7 8 0
-3 -4 -5 -6 -7 -8 0
3 4 5 -6 7 8 0
3 4 5 -6 7 -8 0
3 4 5 -6 -7 8 0
3 4 -5 6 -7 -8 0
3 4 -5 -6 7 8 0
3 -4 5 6 -7 -8 0
3 -4 5 -6 7 8 0
3 -4 -5 6 7 -8 0
3 -4 -5 6 -7 8 0
3 -4 -5 -6 -7 -8 0
-3 4 5 6 -7 -8 0
-3 4 5 -6 7 8 0
-3 4 -5 6 7 -8 0
-3 4 -5 6 -7 8 0
-3 4 -5 -6 -7 -8 0
-3 -4 5 6 7 -8 0
-3 -4 5 6 -7 8 0
-3 -4 5 -6 -7 -8 0
-3 -4 -5 6 7 8 0
-3 -4 -5 -6 7 -8 0
-3 -4 -5 -6 -7 8 0
-3 -4 -5 -6 -7 -8 0
-4 -6 -8 0
-5 -7 -9 0
5 6 7 -8 -9 -10 0
5 6 -7 8 9 10 0
5 6 -7 8 9 -10 0
5 6 -7 8 -9 10 0
5 6 -7 -8 9 10 0
5 -6 7 8 -9 -10 0
5 -6 7 -8 9 -10 0
5 -6 7 -8 -9 10 0
5 -6 -7 8 9 10 0
5 -6 -7 -8 -9 -10 0
-5 6 7 8 -9 -10 0
-5 6 7 -8 9 -10 0
-5 6 7 -8 -9 10 0
-5 6 -7 8 9 10 0
-5 6 -7 -8 -9 -10 0
-5 -6 7 8 9 -10 0
-5 -6 7 8 -9 10 0
-5 -6 7 -8 9 10 0
-5 -6 -7 8 -9 -10 0
-5 -6 -7 -8 9 -10 0
-5 -6 -7 -8 -9 10 0
-5 -6 -7 -8 -9 -10 0
5 6 7 -8 9 10 0
5 6 7 -8 9 -10 0
5 6 7 -8 -9 10 0
5 6 -7 8 -9 -10 0
5 6 -7 -8 9 10 0
5 -6 7 8 -9 -10 0
5 -6 7 -8 9 10 0
5 -6 -7 8 9 -10 0
5 -6 -7 8 -9 10 0
5 -6 -7 -8 -9 -10 0
-5 6 7 8 -9 -10 0
-5 6 7 -8 9 10 0
-5 6 -7 8 9 -10 0
-5 6 -7 8 -9 10 0
-5 6 -7 -8 -9 -10 0
-5 -6 7 8 9 -10 0
-5 -6 7 8 -9 10 0
-5 -6 7 -8 -9 -10 0
-5 -6 -7 8 9 10 0
-5 -6 -7 -8 9 -10 0
-5 -6 -7 -8 -9 10 0
-5 -6 -7 -8 -9 -10 0
-6 -8 -10 0
7 8 -9 10 0
7 8 -9 -10 0
7 -8 -9 10 0
-7 8 -9 10 0
-7 -8 9 -10 0
7 8 9 -10 0
7 8 -9 -10 0
7 -8 9 -10 0
-7 8 9 -10 0
-7 -8 -9 10 0
1 2 0
9 10 0
1 3 5 7 9 0
2 4 6 8 10 0
1 2 3 4 5 6 7 8 9 10 0
-1 -2 -3 -4 5 6 -7 -8 -9 -10 0
