p cnf 18 1181
-1 -2 -3 0
1 -2 -4 -5 0
-1 2 4 5 0
-1 2 4 -5 0
-1 2 -4 5 0
-1 -2 4 5 0
1 2 3 -4 -5 -6 0
1 2 -3 4 -5 -6 0
1 2 -3 -4 5 -6 0
1 2 -3 -4 -5 6 0
1 -2 3 4 5 6 0
1 -2 3 4 5 -6 0
1 -2 3 4 -5 6 0
1 -2 3 -4 5 6 0
1 -2 -3 4 5 6 0
1 -2 -3 -4 -5 -6 0
-1 2 3 4 -5 -6 0
-1 2 3 -4 5 -6 0
-1 2 3 -4 -5 6 0
-1 2 -3 4 5 -6 0
-1 2 -3 4 -5 6 0
-1 2 -3 -4 5 6 0
-1 -2 3 4 5 6 0
-1 -2 3 -4 -5 -6 0
-1 -2 -3 4 -5 -6 0
-1 -2 -3 -4 5 -6 0
-1 -2 -3 -4 -5 6 0
-1 -2 -3 -4 -5 -6 0
2 -3 5 6 0
2 -3 5 -6 0
2 -3 -5 6 0
-2 3 -5 -6 0
-2 -3 5 6 0
-1 -4 -7 0
1 2 4 -5 -7 -8 0
1 2 -4 5 7 8 0
1 2 -4 5 7 -8 0
1 2 -4 5 -7 8 0
1 2 -4 -5 7 8 0
1 -2 4 5 -7 -8 0
1 -2 4 -5 7 -8 0
1 -2 4 -5 -7 8 0
1 -2 -4 5 7 8 0
1 -2 -4 -5 -7 -8 0
-1 2 4 5 -7 -8 0
-1 2 4 -5 7 -8 0
-1 2 4 -5 -7 8 0
-1 2 -4 5 7 8 0
-1 2 -4 -5 -7 -8 0
-1 -2 4 5 7 -8 0
-1 -2 4 5 -7 8 0
-1 -2 4 -5 7 8 0
-1 -2 -4 5 -7 -8 0
-1 -2 -4 -5 7 -8 0
-1 -2 -4 -5 -7 8 0
-1 -2 -4 -5 -7 -8 0
1 2 3 4 5 6 -7 -8 -9 0
1 2 3 4 5 -6 7 -8 -9 0
1 2 3 4 5 -6 -7 8 -9 0
1 2 3 4 5 -6 -7 -8 9 0
1 2 3 4 -5 6 7 8 9 0
1 2 3 4 -5 6 7 8 -9 0
1 2 3 4 -5 6 7 -8 9 0
1 2 3 4 -5 6 -7 8 9 0
1 2 3 4 -5 -6 7 8 9 0
1 2 3 4 -5 -6 -7 -8 -9 0
1 2 3 -4 5 6 7 -8 -9 0
1 2 3 -4 5 6 -7 8 -9 0
1 2 3 -4 5 6 -7 -8 9 0
1 2 3 -4 5 -6 7 8 -9 0
1 2 3 -4 5 -6 7 -8 9 0
1 2 3 -4 5 -6 -7 8 9 0
1 2 3 -4 -5 6 7 8 9 0
1 2 3 -4 -5 6 -7 -8 -9 0
1 2 3 -4 -5 -6 7 -8 -9 0
1 2 3 -4 -5 -6 -7 8 -9 0
1 2 3 -4 -5 -6 -7 -8 9 0
1 2 3 -4 -5 -6 -7 -8 -9 0
1 2 -3 4 5 6 7 -8 -9 0
1 2 -3 4 5 6 -7 8 -9 0
1 2 -3 4 5 6 -7 -8 9 0
1 2 -3 4 5 -6 7 8 -9 0
1 2 -3 4 5 -6 7 -8 9 0
1 2 -3 4 5 -6 -7 8 9 0
1 2 -3 4 -5 6 7 8 9 0
1 2 -3 4 -5 6 -7 -8 -9 0
1 2 -3 4 -5 -6 7 -8 -9 0
1 2 -3 4 -5 -6 -7 8 -9 0
1 2 -3 4 -5 -6 -7 -8 9 0
1 2 -3 4 -5 -6 -7 -8 -9 0
1 2 -3 -4 5 6 7 8 -9 0
1 2 -3 -4 5 6 7 -8 9 0
1 2 -3 -4 5 6 -7 8 9 0
1 2 -3 -4 5 -6 7 8 9 0
1 2 -3 -4 -5 6 7 -8 -9 0
1 2 -3 -4 -5 6 -7 8 -9 0
1 2 -3 -4 -5 6 -7 -8 9 0
1 2 -3 -4 -5 6 -7 -8 -9 0
1 2 -3 -4 -5 -6 7 8 -9 0
1 2 -3 -4 -5 -6 7 -8 9 0
1 2 -3 -4 -5 -6 7 -8 -9 0
1 2 -3 -4 -5 -6 -7 8 9 0
1 2 -3 -4 -5 -6 -7 8 -9 0
1 2 -3 -4 -5 -6 -7 -8 9 0
1 2 -3 -4 -5 -6 -7 -8 -9 0
1 -2 3 4 5 6 7 -8 -9 0
1 -2 3 4 5 6 -7 8 -9 0
1 -2 3 4 5 6 -7 -8 9 0
1 -2 3 4 5 -6 7 8 -9 0
1 -2 3 4 5 -6 7 -8 9 0
1 -2 3 4 5 -6 -7 8 9 0
1 -2 3 4 -5 6 7 8 9 0
1 -2 3 4 -5 6 -7 -8 -9 0
1 -2 3 4 -5 -6 7 -8 -9 0
1 -2 3 4 -5 -6 -7 8 -9 0
1 -2 3 4 -5 -6 -7 -8 9 0
1 -2 3 4 -5 -6 -7 -8 -9 0
1 -2 3 -4 5 6 7 8 -9 0
1 -2 3 -4 5 6 7 -8 9 0
1 -2 3 -4 5 6 -7 8 9 0
1 -2 3 -4 5 -6 7 8 9 0
1 -2 3 -4 -5 6 7 -8 -9 0
1 -2 3 -4 -5 6 -7 8 -9 0
1 -2 3 -4 -5 6 -7 -8 9 0
1 -2 3 -4 -5 6 -7 -8 -9 0
1 -2 3 -4 -5 -6 7 8 -9 0
1 -2 3 -4 -5 -6 7 -8 9 0
1 -2 3 -4 -5 -6 7 -8 -9 0
1 -2 3 -4 -5 -6 -7 8 9 0
1 -2 3 -4 -5 -6 -7 8 -9 0
1 -2 3 -4 -5 -6 -7 -8 9 0
1 -2 3 -4 -5 -6 -7 -8 -9 0
1 -2 -3 4 5 6 7 8 -9 0
1 -2 -3 4 5 6 7 -8 9 0
1 -2 -3 4 5 6 -7 8 9 0
1 -2 -3 4 5 -6 7 8 9 0
1 -2 -3 4 -5 6 7 -8 -9 0
1 -2 -3 4 -5 6 -7 8 -9 0
1 -2 -3 4 -5 6 -7 -8 9 0
1 -2 -3 4 -5 6 -7 -8 -9 0
1 -2 -3 4 -5 -6 7 8 -9 0
1 -2 -3 4 -5 -6 7 -8 9 0
1 -2 -3 4 -5 -6 7 -8 -9 0
1 -2 -3 4 -5 -6 -7 8 9 0
1 -2 -3 4 -5 -6 -7 8 -9 0
1 -2 -3 4 -5 -6 -7 -8 9 0
1 -2 -3 4 -5 -6 -7 -8 -9 0
1 -2 -3 -4 5 6 7 8 9 0
1 -2 -3 -4 -5 6 7 8 -9 0
1 -2 -3 -4 -5 6 7 -8 9 0
1 -2 -3 -4 -5 6 7 -8 -9 0
1 -2 -3 -4 -5 6 -7 8 9 0
1 -2 -3 -4 -5 6 -7 8 -9 0
1 -2 -3 -4 -5 6 -7 -8 9 0
1 -2 -3 -4 -5 6 -7 -8 -9 0
1 -2 -3 -4 -5 -6 7 8 9 0
1 -2 -3 -4 -5 -6 7 8 -9 0
1 -2 -3 -4 -5 -6 7 -8 9 0
1 -2 -3 -4 -5 -6 7 -8 -9 0
1 -2 -3 -4 -5 -6 -7 8 9 0
1 -2 -3 -4 -5 -6 -7 8 -9 0
1 -2 -3 -4 -5 -6 -7 -8 9 0
1 -2 -3 -4 -5 -6 -7 -8 -9 0
-1 2 3 4 5 6 7 -8 -9 0
-1 2 3 4 5 6 -7 8 -9 0
-1 2 3 4 5 6 -7 -8 9 0
-1 2 3 4 5 -6 7 8 -9 0
-1 2 3 4 5 -6 7 -8 9 0
-1 2 3 4 5 -6 -7 8 9 0
-1 2 3 4 -5 6 7 8 9 0
-1 2 3 4 -5 6 -7 -8 -9 0
-1 2 3 4 -5 -6 7 -8 -9 0
-1 2 3 4 -5 -6 -7 8 -9 0
-1 2 3 4 -5 -6 -7 -8 9 0
-1 2 3 4 -5 -6 -7 -8 -9 0
-1 2 3 -4 5 6 7 8 -9 0
-1 2 3 -4 5 6 7 -8 9 0
-1 2 3 -4 5 6 -7 8 9 0
-1 2 3 -4 5 -6 7 8 9 0
-1 2 3 -4 -5 6 7 -8 -9 0
-1 2 3 -4 -5 6 -7 8 -9 0
-1 2 3 -4 -5 6 -7 -8 9 0
-1 2 3 -4 -5 6 -7 -8 -9 0
-1 2 3 -4 -5 -6 7 8 -9 0
-1 2 3 -4 -5 -6 7 -8 9 0
-1 2 3 -4 -5 -6 7 -8 -9 0
-1 2 3 -4 -5 -6 -7 8 9 0
-1 2 3 -4 -5 -6 -7 8 -9 0
-1 2 3 -4 -5 -6 -7 -8 9 0
-1 2 3 -4 -5 -6 -7 -8 -9 0
-1 2 -3 4 5 6 7 8 -9 0
-1 2 -3 4 5 6 7 -8 9 0
-1 2 -3 4 5 6 -7 8 9 0
-1 2 -3 4 5 -6 7 8 9 0
-1 2 -3 4 -5 6 7 -8 -9 0
-1 2 -3 4 -5 6 -7 8 -9 0
-1 2 -3 4 -5 6 -7 -8 9 0
-1 2 -3 4 -5 6 -7 -8 -9 0
-1 2 -3 4 -5 -6 7 8 -9 0
-1 2 -3 4 -5 -6 7 -8 9 0
-1 2 -3 4 -5 -6 7 -8 -9 0
-1 2 -3 4 -5 -6 -7 8 9 0
-1 2 -3 4 -5 -6 -7 8 -9 0
-1 2 -3 4 -5 -6 -7 -8 9 0
-1 2 -3 4 -5 -6 -7 -8 -9 0
-1 2 -3 -4 5 6 7 8 9 0
-1 2 -3 -4 -5 6 7 8 -9 0
-1 2 -3 -4 -5 6 7 -8 9 0
-1 2 -3 -4 -5 6 7 -8 -9 0
-1 2 -3 -4 -5 6 -7 8 9 0
-1 2 -3 -4 -5 6 -7 8 -9 0
-1 2 -3 -4 -5 6 -7 -8 9 0
-1 2 -3 -4 -5 6 -7 -8 -9 0
-1 2 -3 -4 -5 -6 7 8 9 0
-1 2 -3 -4 -5 -6 7 8 -9 0
-1 2 -3 -4 -5 -6 7 -8 9 0
-1 2 -3 -4 -5 -6 7 -8 -9 0
-1 2 -3 -4 -5 -6 -7 8 9 0
-1 2 -3 -4 -5 -6 -7 8 -9 0
-1 2 -3 -4 -5 -6 -7 -8 9 0
-1 2 -3 -4 -5 -6 -7 -8 -9 0
-1 -2 3 4 5 6 7 8 -9 0
-1 -2 3 4 5 6 7 -8 9 0
-1 -2 3 4 5 6 -7 8 9 0
-1 -2 3 4 5 -6 7 8 9 0
-1 -2 3 4 -5 6 7 -8 -9 0
-1 -2 3 4 -5 6 -7 8 -9 0
-1 -2 3 4 -5 6 -7 -8 9 0
-1 -2 3 4 -5 6 -7 -8 -9 0
-1 -2 3 4 -5 -6 7 8 -9 0
-1 -2 3 4 -5 -6 7 -8 9 0
-1 -2 3 4 -5 -6 7 -8 -9 0
-1 -2 3 4 -5 -6 -7 8 9 0
-1 -2 3 4 -5 -6 -7 8 -9 0
-1 -2 3 4 -5 -6 -7 -8 9 0
-1 -2 3 4 -5 -6 -7 -8 -9 0
-1 -2 3 -4 5 6 7 8 9 0
-1 -2 3 -4 -5 6 7 8 -9 0
-1 -2 3 -4 -5 6 7 -8 9 0
-1 -2 3 -4 -5 6 7 -8 -9 0
-1 -2 3 -4 -5 6 -7 8 9 0
-1 -2 3 -4 -5 6 -7 8 -9 0
-1 -2 3 -4 -5 6 -7 -8 9 0
-1 -2 3 -4 -5 6 -7 -8 -9 0
-1 -2 3 -4 -5 -6 7 8 9 0
-1 -2 3 -4 -5 -6 7 8 -9 0
-1 -2 3 -4 -5 -6 7 -8 9 0
-1 -2 3 -4 -5 -6 7 -8 -9 0
-1 -2 3 -4 -5 -6 -7 8 9 0
-1 -2 3 -4 -5 -6 -7 8 -9 0
-1 -2 3 -4 -5 -6 -7 -8 9 0
-1 -2 3 -4 -5 -6 -7 -8 -9 0
-1 -2 -3 4 5 6 7 8 9 0
-1 -2 -3 4 -5 6 7 8 -9 0
-1 -2 -3 4 -5 6 7 -8 9 0
-1 -2 -3 4 -5 6 7 -8 -9 0
-1 -2 -3 4 -5 6 -7 8 9 0
-1 -2 -3 4 -5 6 -7 8 -9 0
-1 -2 -3 4 -5 6 -7 -8 9 0
-1 -2 -3 4 -5 6 -7 -8 -9 0
-1 -2 -3 4 -5 -6 7 8 9 0
-1 -2 -3 4 -5 -6 7 8 -9 0
-1 -2 -3 4 -5 -6 7 -8 9 0
-1 -2 -3 4 -5 -6 7 -8 -9 0
-1 -2 -3 4 -5 -6 -7 8 9 0
-1 -2 -3 4 -5 -6 -7 8 -9 0
-1 -2 -3 4 -5 -6 -7 -8 9 0
-1 -2 -3 4 -5 -6 -7 -8 -9 0
-1 -2 -3 -4 -5 6 7 8 9 0
-1 -2 -3 -4 -5 6 7 8 -9 0
-1 -2 -3 -4 -5 6 7 -8 9 0
-1 -2 -3 -4 -5 6 7 -8 -9 0
-1 -2 -3 -4 -5 6 -7 8 9 0
-1 -2 -3 -4 -5 6 -7 8 -9 0
-1 -2 -3 -4 -5 6 -7 -8 9 0
-1 -2 -3 -4 -5 6 -7 -8 -9 0
-1 -2 -3 -4 -5 -6 7 8 9 0
-1 -2 -3 -4 -5 -6 7 8 -9 0
-1 -2 -3 -4 -5 -6 7 -8 9 0
-1 -2 -3 -4 -5 -6 7 -8 -9 0
-1 -2 -3 -4 -5 -6 -7 8 9 0
-1 -2 -3 -4 -5 -6 -7 8 -9 0
-1 -2 -3 -4 -5 -6 -7 -8 9 0
-1 -2 -3 -4 -5 -6 -7 -8 -9 0
2 3 5 -6 8 9 0
2 3 5 -6 8 -9 0
2 3 5 -6 -8 9 0
2 3 -5 6 -8 -9 0
2 3 -5 -6 8 9 0
2 -3 5 6 -8 -9 0
2 -3 5 -6 8 9 0
2 -3 -5 6 8 -9 0
2 -3 -5 6 -8 9 0
2 -3 -5 -6 -8 -9 0
-2 3 5 6 -8 -9 0
-2 3 5 -6 8 9 0
-2 3 -5 6 8 -9 0
-2 3 -5 6 -8 9 0
-2 3 -5 -6 -8 -9 0
-2 -3 5 6 8 -9 0
-2 -3 5 6 -8 9 0
-2 -3 5 -6 -8 -9 0
-2 -3 -5 6 8 9 0
-2 -3 -5 -6 8 -9 0
-2 -3 -5 -6 -8 9 0
-2 -3 -5 -6 -8 -9 0
-3 -6 -9 0
-4 -7 -10 0
4 5 7 -8 -10 -11 0
4 5 -7 8 10 11 0
4 5 -7 8 10 -11 0
4 5 -7 8 -10 11 0
4 5 -7 -8 10 11 0
4 -5 7 8 -10 -11 0
4 -5 7 -8 10 -11 0
4 -5 7 -8 -10 11 0
4 -5 -7 8 10 11 0
4 -5 -7 -8 -10 -11 0
-4 5 7 8 -10 -11 0
-4 5 7 -8 10 -11 0
-4 5 7 -8 -10 11 0
-4 5 -7 8 10 11 0
-4 5 -7 -8 -10 -11 0
-4 -5 7 8 10 -11 0
-4 -5 7 8 -10 11 0
-4 -5 7 -8 10 11 0
-4 -5 -7 8 -10 -11 0
-4 -5 -7 -8 10 -11 0
-4 -5 -7 -8 -10 11 0
-4 -5 -7 -8 -10 -11 0
4 5 6 7 8 9 -10 -11 -12 0
4 5 6 7 8 -9 10 -11 -12 0
4 5 6 7 8 -9 -10 11 -12 0
4 5 6 7 8 -9 -10 -11 12 0
4 5 6 7 -8 9 10 11 12 0
4 5 6 7 -8 9 10 11 -12 0
4 5 6 7 -8 9 10 -11 12 0
4 5 6 7 -8 9 -10 11 12 0
4 5 6 7 -8 -9 10 11 12 0
4 5 6 7 -8 -9 -10 -11 -12 0
4 5 6 -7 8 9 10 -11 -12 0
4 5 6 -7 8 9 -10 11 -12 0
4 5 6 -7 8 9 -10 -11 12 0
4 5 6 -7 8 -9 10 11 -12 0
4 5 6 -7 8 -9 10 -11 12 0
4 5 6 -7 8 -9 -10 11 12 0
4 5 6 -7 -8 9 10 11 12 0
4 5 6 -7 -8 9 -10 -11 -12 0
4 5 6 -7 -8 -9 10 -11 -12 0
4 5 6 -7 -8 -9 -10 11 -12 0
4 5 6 -7 -8 -9 -10 -11 12 0
4 5 6 -7 -8 -9 -10 -11 -12 0
4 5 -6 7 8 9 10 -11 -12 0
4 5 -6 7 8 9 -10 11 -12 0
4 5 -6 7 8 9 -10 -11 12 0
4 5 -6 7 8 -9 10 11 -12 0
4 5 -6 7 8 -9 10 -11 12 0
4 5 -6 7 8 -9 -10 11 12 0
4 5 -6 7 -8 9 10 11 12 0
4 5 -6 7 -8 9 -10 -11 -12 0
4 5 -6 7 -8 -9 10 -11 -12 0
4 5 -6 7 -8 -9 -10 11 -12 0
4 5 -6 7 -8 -9 -10 -11 12 0
4 5 -6 7 -8 -9 -10 -11 -12 0
4 5 -6 -7 8 9 10 11 -12 0
4 5 -6 -7 8 9 10 -11 12 0
4 5 -6 -7 8 9 -10 11 12 0
4 5 -6 -7 8 -9 10 11 12 0
4 5 -6 -7 -8 9 10 -11 -12 0
4 5 -6 -7 -8 9 -10 11 -12 0
4 5 -6 -7 -8 9 -10 -11 12 0
4 5 -6 -7 -8 9 -10 -11 -12 0
4 5 -6 -7 -8 -9 10 11 -12 0
4 5 -6 -7 -8 -9 10 -11 12 0
4 5 -6 -7 -8 -9 10 -11 -12 0
4 5 -6 -7 -8 -9 -10 11 12 0
4 5 -6 -7 -8 -9 -10 11 -12 0
4 5 -6 -7 -8 -9 -10 -11 12 0
4 5 -6 -7 -8 -9 -10 -11 -12 0
4 -5 6 7 8 9 10 -11 -12 0
4 -5 6 7 8 9 -10 11 -12 0
4 -5 6 7 8 9 -10 -11 12 0
4 -5 6 7 8 -9 10 11 -12 0
4 -5 6 7 8 -9 10 -11 12 0
4 -5 6 7 8 -9 -10 11 12 0
4 -5 6 7 -8 9 10 11 12 0
4 -5 6 7 -8 9 -10 -11 -12 0
4 -5 6 7 -8 -9 10 -11 -12 0
4 -5 6 7 -8 -9 -10 11 -12 0
4 -5 6 7 -8 -9 -10 -11 12 0
4 -5 6 7 -8 -9 -10 -11 -12 0
4 -5 6 -7 8 9 10 11 -12 0
4 -5 6 -7 8 9 10 -11 12 0
4 -5 6 -7 8 9 -10 11 12 0
4 -5 6 -7 8 -9 10 11 12 0
4 -5 6 -7 -8 9 10 -11 -12 0
4 -5 6 -7 -8 9 -10 11 -12 0
4 -5 6 -7 -8 9 -10 -11 12 0
4 -5 6 -7 -8 9 -10 -11 -12 0
4 -5 6 -7 -8 -9 10 11 -12 0
4 -5 6 -7 -8 -9 10 -11 12 0
4 -5 6 -7 -8 -9 10 -11 -12 0
4 -5 6 -7 -8 -9 -10 11 12 0
4 -5 6 -7 -8 -9 -10 11 -12 0
4 -5 6 -7 -8 -9 -10 -11 12 0
4 -5 6 -7 -8 -9 -10 -11 -12 0
4 -5 -6 7 8 9 10 11 -12 0
4 -5 -6 7 8 9 10 -11 12 0
4 -5 -6 7 8 9 -10 11 12 0
4 -5 -6 7 8 -9 10 11 12 0
4 -5 -6 7 -8 9 10 -11 -12 0
4 -5 -6 7 -8 9 -10 11 -12 0
4 -5 -6 7 -8 9 -10 -11 12 0
4 -5 -6 7 -8 9 -10 -11 -12 0
4 -5 -6 7 -8 -9 10 11 -12 0
4 -5 -6 7 -8 -9 10 -11 12 0
4 -5 -6 7 -8 -9 10 -11 -12 0
4 -5 -6 7 -8 -9 -10 11 12 0
4 -5 -6 7 -8 -9 -10 11 -12 0
4 -5 -6 7 -8 -9 -10 -11 12 0
4 -5 -6 7 -8 -9 -10 -11 -12 0
4 -5 -6 -7 8 9 10 11 12 0
4 -5 -6 -7 -8 9 10 11 -12 0
4 -5 -6 -7 -8 9 10 -11 12 0
4 -5 -6 -7 -8 9 10 -11 -12 0
4 -5 -6 -7 -8 9 -10 11 12 0
4 -5 -6 -7 -8 9 -10 11 -12 0
4 -5 -6 -7 -8 9 -10 -11 12 0
4 -5 -6 -7 -8 9 -10 -11 -12 0
4 -5 -6 -7 -8 -9 10 11 12 0
4 -5 -6 -7 -8 -9 10 11 -12 0
4 -5 -6 -7 -8 -9 10 -11 12 0
4 -5 -6 -7 -8 -9 10 -11 -12 0
4 -5 -6 -7 -8 -9 -10 11 12 0
4 -5 -6 -7 -8 -9 -10 11 -12 0
4 -5 -6 -7 -8 -9 -10 -11 12 0
4 -5 -6 -7 -8 -9 -10 -11 -12 0
-4 5 6 7 8 9 10 -11 -12 0
-4 5 6 7 8 9 -10 11 -12 0
-4 5 6 7 8 9 -10 -11 12 0
-4 5 6 7 8 -9 10 11 -12 0
-4 5 6 7 8 -9 10 -11 12 0
-4 5 6 7 8 -9 -10 11 12 0
-4 5 6 7 -8 9 10 11 12 0
-4 5 6 7 -8 9 -10 -11 -12 0
-4 5 6 7 -8 -9 10 -11 -12 0
-4 5 6 7 -8 -9 -10 11 -12 0
-4 5 6 7 -8 -9 -10 -11 12 0
-4 5 6 7 -8 -9 -10 -11 -12 0
-4 5 6 -7 8 9 10 11 -12 0
-4 5 6 -7 8 9 10 -11 12 0
-4 5 6 -7 8 9 -10 11 12 0
-4 5 6 -7 8 -9 10 11 12 0
-4 5 6 -7 -8 9 10 -11 -12 0
-4 5 6 -7 -8 9 -10 11 -12 0
-4 5 6 -7 -8 9 -10 -11 12 0
-4 5 6 -7 -8 9 -10 -11 -12 0
-4 5 6 -7 -8 -9 10 11 -12 0
-4 5 6 -7 -8 -9 10 -11 12 0
-4 5 6 -7 -8 -9 10 -11 -12 0
-4 5 6 -7 -8 -9 -10 11 12 0
-4 5 6 -7 -8 -9 -10 11 -12 0
-4 5 6 -7 -8 -9 -10 -11 12 0
-4 5 6 -7 -8 -9 -10 -11 -12 0
-4 5 -6 7 8 9 10 11 -12 0
-4 5 -6 7 8 9 10 -11 12 0
-4 5 -6 7 8 9 -10 11 12 0
-4 5 -6 7 8 -9 10 11 12 0
-4 5 -6 7 -8 9 10 -11 -12 0
-4 5 -6 7 -8 9 -10 11 -12 0
-4 5 -6 7 -8 9 -10 -11 12 0
-4 5 -6 7 -8 9 -10 -11 -12 0
-4 5 -6 7 -8 -9 10 11 -12 0
-4 5 -6 7 -8 -9 10 -11 12 0
-4 5 -6 7 -8 -9 10 -11 -12 0
-4 5 -6 7 -8 -9 -10 11 12 0
-4 5 -6 7 -8 -9 -10 11 -12 0
-4 5 -6 7 -8 -9 -10 -11 12 0
-4 5 -6 7 -8 -9 -10 -11 -12 0
-4 5 -6 -7 8 9 10 11 12 0
-4 5 -6 -7 -8 9 10 11 -12 0
-4 5 -6 -7 -8 9 10 -11 12 0
-4 5 -6 -7 -8 9 10 -11 -12 0
-4 5 -6 -7 -8 9 -10 11 12 0
-4 5 -6 -7 -8 9 -10 11 -12 0
-4 5 -6 -7 -8 9 -10 -11 12 0
-4 5 -6 -7 -8 9 -10 -11 -12 0
-4 5 -6 -7 -8 -9 10 11 12 0
-4 5 -6 -7 -8 -9 10 11 -12 0
-4 5 -6 -7 -8 -9 10 -11 12 0
-4 5 -6 -7 -8 -9 10 -11 -12 0
-4 5 -6 -7 -8 -9 -10 11 12 0
-4 5 -6 -7 -8 -9 -10 11 -12 0
-4 5 -6 -7 -8 -9 -10 -11 12 0
-4 5 -6 -7 -8 -9 -10 -11 -12 0
-4 -5 6 7 8 9 10 11 -12 0
-4 -5 6 7 8 9 10 -11 12 0
-4 -5 6 7 8 9 -10 11 12 0
-4 -5 6 7 8 -9 10 11 12 0
-4 -5 6 7 -8 9 10 -11 -12 0
-4 -5 6 7 -8 9 -10 11 -12 0
-4 -5 6 7 -8 9 -10 -11 12 0
-4 -5 6 7 -8 9 -10 -11 -12 0
-4 -5 6 7 -8 -9 10 11 -12 0
-4 -5 6 7 -8 -9 10 -11 12 0
-4 -5 6 7 -8 -9 10 -11 -12 0
-4 -5 6 7 -8 -9 -10 11 12 0
-4 -5 6 7 -8 -9 -10 11 -12 0
-4 -5 6 7 -8 -9 -10 -11 12 0
-4 -5 6 7 -8 -9 -10 -11 -12 0
-4 -5 6 -7 8 9 10 11 12 0
-4 -5 6 -7 -8 9 10 11 -12 0
-4 -5 6 -7 -8 9 10 -11 12 0
-4 -5 6 -7 -8 9 10 -11 -12 0
-4 -5 6 -7 -8 9 -10 11 12 0
-4 -5 6 -7 -8 9 -10 11 -12 0
-4 -5 6 -7 -8 9 -10 -11 12 0
-4 -5 6 -7 -8 9 -10 -11 -12 0
-4 -5 6 -7 -8 -9 10 11 12 0
-4 -5 6 -7 -8 -9 10 11 -12 0
-4 -5 6 -7 -8 -9 10 -11 12 0
-4 -5 6 -7 -8 -9 10 -11 -12 0
-4 -5 6 -7 -8 -9 -10 11 12 0
-4 -5 6 -7 -8 -9 -10 11 -12 0
-4 -5 6 -7 -8 -9 -10 -11 12 0
-4 -5 6 -7 -8 -9 -10 -11 -12 0
-4 -5 -6 7 8 9 10 11 12 0
-4 -5 -6 7 -8 9 10 11 -12 0
-4 -5 -6 7 -8 9 10 -11 12 0
-4 -5 -6 7 -8 9 10 -11 -12 0
-4 -5 -6 7 -8 9 -10 11 12 0
-4 -5 -6 7 -8 9 -10 11 -12 0
-4 -5 -6 7 -8 9 -10 -11 12 0
-4 -5 -6 7 -8 9 -10 -11 -12 0
-4 -5 -6 7 -8 -9 10 11 12 0
-4 -5 -6 7 -8 -9 10 11 -12 0
-4 -5 -6 7 -8 -9 10 -11 12 0
-4 -5 -6 7 -8 -9 10 -11 -12 0
-4 -5 -6 7 -8 -9 -10 11 12 0
-4 -5 -6 7 -8 -9 -10 11 -12 0
-4 -5 -6 7 -8 -9 -10 -11 12 0
-4 -5 -6 7 -8 -9 -10 -11 -12 0
-4 -5 -6 -7 -8 9 10 11 12 0
-4 -5 -6 -7 -8 9 10 11 -12 0
-4 -5 -6 -7 -8 9 10 -11 12 0
-4 -5 -6 -7 -8 9 10 -11 -12 0
-4 -5 -6 -7 -8 9 -10 11 12 0
-4 -5 -6 -7 -8 9 -10 11 -12 0
-4 -5 -6 -7 -8 9 -10 -11 12 0
-4 -5 -6 -7 -8 9 -10 -11 -12 0
-4 -5 -6 -7 -8 -9 10 11 12 0
-4 -5 -6 -7 -8 -9 10 11 -12 0
-4 -5 -6 -7 -8 -9 10 -11 12 0
-4 -5 -6 -7 -8 -9 10 -11 -12 0
-4 -5 -6 -7 -8 -9 -10 11 12 0
-4 -5 -6 -7 -8 -9 -10 11 -12 0
-4 -5 -6 -7 -8 -9 -10 -11 12 0
-4 -5 -6 -7 -8 -9 -10 -11 -12 0
5 6 8 -9 11 12 0
5 6 8 -9 11 -12 0
5 6 8 -9 -11 12 0
5 6 -8 9 -11 -12 0
5 6 -8 -9 11 12 0
5 -6 8 9 -11 -12 0
5 -6 8 -9 11 12 0
5 -6 -8 9 11 -12 0
5 -6 -8 9 -11 12 0
5 -6 -8 -9 -11 -12 0
-5 6 8 9 -11 -12 0
-5 6 8 -9 11 12 0
-5 6 -8 9 11 -12 0
-5 6 -8 9 -11 12 0
-5 6 -8 -9 -11 -12 0
-5 -6 8 9 11 -12 0
-5 -6 8 9 -11 12 0
-5 -6 8 -9 -11 -12 0
-5 -6 -8 9 11 12 0
-5 -6 -8 -9 11 -12 0
-5 -6 -8 -9 -11 12 0
-5 -6 -8 -9 -11 -12 0
-6 -9 -12 0
-7 -10 -13 0
7 8 10 -11 -13 -14 0
7 8 -10 11 13 14 0
7 8 -10 11 13 -14 0
7 8 -10 11 -13 14 0
7 8 -10 -11 13 14 0
7 -8 10 11 -13 -14 0
7 -8 10 -11 13 -14 0
7 -8 10 -11 -13 14 0
7 -8 -10 11 13 14 0
7 -8 -10 -11 -13 -14 0
-7 8 10 11 -13 -14 0
-7 8 10 -11 13 -14 0
-7 8 10 -11 -13 14 0
-7 8 -10 11 13 14 0
-7 8 -10 -11 -13 -14 0
-7 -8 10 11 13 -14 0
-7 -8 10 11 -13 14 0
-7 -8 10 -11 13 14 0
-7 -8 -10 11 -13 -14 0
-7 -8 -10 -11 13 -14 0
-7 -8 -10 -11 -13 14 0
-7 -8 -10 -11 -13 -14 0
7 8 9 10 11 12 -13 -14 -15 0
7 8 9 10 11 -12 13 -14 -15 0
7 8 9 10 11 -12 -13 14 -15 0
7 8 9 10 11 -12 -13 -14 15 0
7 8 9 10 -11 12 13 14 15 0
7 8 9 10 -11 12 13 14 -15 0
7 8 9 10 -11 12 13 -14 15 0
7 8 9 10 -11 12 -13 14 15 0
7 8 9 10 -11 -12 13 14 15 0
7 8 9 10 -11 -12 -13 -14 -15 0
7 8 9 -10 11 12 13 -14 -15 0
7 8 9 -10 11 12 -13 14 -15 0
7 8 9 -10 11 12 -13 -14 15 0
7 8 9 -10 11 -12 13 14 -15 0
7 8 9 -10 11 -12 13 -14 15 0
7 8 9 -10 11 -12 -13 14 15 0
7 8 9 -10 -11 12 13 14 15 0
7 8 9 -10 -11 12 -13 -14 -15 0
7 8 9 -10 -11 -12 13 -14 -15 0
7 8 9 -10 -11 -12 -13 14 -15 0
7 8 9 -10 -11 -12 -13 -14 15 0
7 8 9 -10 -11 -12 -13 -14 -15 0
7 8 -9 10 11 12 13 -14 -15 0
7 8 -9 10 11 12 -13 14 -15 0
7 8 -9 10 11 12 -13 -14 15 0
7 8 -9 10 11 -12 13 14 -15 0
7 8 -9 10 11 -12 13 -14 15 0
7 8 -9 10 11 -12 -13 14 15 0
7 8 -9 10 -11 12 13 14 15 0
7 8 -9 10 -11 12 -13 -14 -15 0
7 8 -9 10 -11 -12 13 -14 -15 0
7 8 -9 10 -11 -12 -13 14 -15 0
7 8 -9 10 -11 -12 -13 -14 15 0
7 8 -9 10 -11 -12 -13 -14 -15 0
7 8 -9 -10 11 12 13 14 -15 0
7 8 -9 -10 11 12 13 -14 15 0
7 8 -9 -10 11 12 -13 14 15 0
7 8 -9 -10 11 -12 13 14 15 0
7 8 -9 -10 -11 12 13 -14 -15 0
7 8 -9 -10 -11 12 -13 14 -15 0
7 8 -9 -10 -11 12 -13 -14 15 0
7 8 -9 -10 -11 12 -13 -14 -15 0
7 8 -9 -10 -11 -12 13 14 -15 0
7 8 -9 -10 -11 -12 13 -14 15 0
7 8 -9 -10 -11 -12 13 -14 -15 0
7 8 -9 -10 -11 -12 -13 14 15 0
7 8 -9 -10 -11 -12 -13 14 -15 0
7 8 -9 -10 -11 -12 -13 -14 15 0
7 8 -9 -10 -11 -12 -13 -14 -15 0
7 -8 9 10 11 12 13 -14 -15 0
7 -8 9 10 11 12 -13 14 -15 0
7 -8 9 10 11 12 -13 -14 15 0
7 -8 9 10 11 -12 13 14 -15 0
7 -8 9 10 11 -12 13 -14 15 0
7 -8 9 10 11 -12 -13 14 15 0
7 -8 9 10 -11 12 13 14 15 0
7 -8 9 10 -11 12 -13 -14 -15 0
7 -8 9 10 -11 -12 13 -14 -15 0
7 -8 9 10 -11 -12 -13 14 -15 0
7 -8 9 10 -11 -12 -13 -14 15 0
7 -8 9 10 -11 -12 -13 -14 -15 0
7 -8 9 -10 11 12 13 14 -15 0
7 -8 9 -10 11 12 13 -14 15 0
7 -8 9 -10 11 12 -13 14 15 0
7 -8 9 -10 11 -12 13 14 15 0
7 -8 9 -10 -11 12 13 -14 -15 0
7 -8 9 -10 -11 12 -13 14 -15 0
7 -8 9 -10 -11 12 -13 -14 15 0
7 -8 9 -10 -11 12 -13 -14 -15 0
7 -8 9 -10 -11 -12 13 14 -15 0
7 -8 9 -10 -11 -12 13 -14 15 0
7 -8 9 -10 -11 -12 13 -14 -15 0
7 -8 9 -10 -11 -12 -13 14 15 0
7 -8 9 -10 -11 -12 -13 14 -15 0
7 -8 9 -10 -11 -12 -13 -14 15 0
7 -8 9 -10 -11 -12 -13 -14 -15 0
7 -8 -9 10 11 12 13 14 -15 0
7 -8 -9 10 11 12 13 -14 15 0
7 -8 -9 10 11 12 -13 14 15 0
7 -8 -9 10 11 -12 13 14 15 0
7 -8 -9 10 -11 12 13 -14 -15 0
7 -8 -9 10 -11 12 -13 14 -15 0
7 -8 -9 10 -11 12 -13 -14 15 0
7 -8 -9 10 -11 12 -13 -14 -15 0
7 -8 -9 10 -11 -12 13 14 -15 0
7 -8 -9 10 -11 -12 13 -14 15 0
7 -8 -9 10 -11 -12 13 -14 -15 0
7 -8 -9 10 -11 -12 -13 14 15 0
7 -8 -9 10 -11 -12 -13 14 -15 0
7 -8 -9 10 -11 -12 -13 -14 15 0
7 -8 -9 10 -11 -12 -13 -14 -15 0
7 -8 -9 -10 11 12 13 14 15 0
7 -8 -9 -10 -11 12 13 14 -15 0
7 -8 -9 -10 -11 12 13 -14 15 0
7 -8 -9 -10 -11 12 13 -14 -15 0
7 -8 -9 -10 -11 12 -13 14 15 0
7 -8 -9 -10 -11 12 -13 14 -15 0
7 -8 -9 -10 -11 12 -13 -14 15 0
7 -8 -9 -10 -11 12 -13 -14 -15 0
7 -8 -9 -10 -11 -12 13 14 15 0
7 -8 -9 -10 -11 -12 13 14 -15 0
7 -8 -9 -10 -11 -12 13 -14 15 0
7 -8 -9 -10 -11 -12 13 -14 -15 0
7 -8 -9 -10 -11 -12 -13 14 15 0
7 -8 -9 -10 -11 -12 -13 14 -15 0
7 -8 -9 -10 -11 -12 -13 -14 15 0
7 -8 -9 -10 -11 -12 -13 -14 -15 0
-7 8 9 10 11 12 13 -14 -15 0
-7 8 9 10 11 12 -13 14 -15 0
-7 8 9 10 11 12 -13 -14 15 0
-7 8 9 10 11 -12 13 14 -15 0
-7 8 9 10 11 -12 13 -14 15 0
-7 8 9 10 11 -12 -13 14 15 0
-7 8 9 10 -11 12 13 14 15 0
-7 8 9 10 -11 12 -13 -14 -15 0
-7 8 9 10 -11 -12 13 -14 -15 0
-7 8 9 10 -11 -12 -13 14 -15 0
-7 8 9 10 -11 -12 -13 -14 15 0
-7 8 9 10 -11 -12 -13 -14 -15 0
-7 8 9 -10 11 12 13 14 -15 0
-7 8 9 -10 11 12 13 -14 15 0
-7 8 9 -10 11 12 -13 14 15 0
-7 8 9 -10 11 -12 13 14 15 0
-7 8 9 -10 -11 12 13 -14 -15 0
-7 8 9 -10 -11 12 -13 14 -15 0
-7 8 9 -10 -11 12 -13 -14 15 0
-7 8 9 -10 -11 12 -13 -14 -15 0
-7 8 9 -10 -11 -12 13 14 -15 0
-7 8 9 -10 -11 -12 13 -14 15 0
-7 8 9 -10 -11 -12 13 -14 -15 0
-7 8 9 -10 -11 -12 -13 14 15 0
-7 8 9 -10 -11 -12 -13 14 -15 0
-7 8 9 -10 -11 -12 -13 -14 15 0
-7 8 9 -10 -11 -12 -13 -14 -15 0
-7 8 -9 10 11 12 13 14 -15 0
-7 8 -9 10 11 12 13 -14 15 0
-7 8 -9 10 11 12 -13 14 15 0
-7 8 -9 10 11 -12 13 14 15 0
-7 8 -9 10 -11 12 13 -14 -15 0
-7 8 -9 10 -11 12 -13 14 -15 0
-7 8 -9 10 -11 12 -13 -14 15 0
-7 8 -9 10 -11 12 -13 -14 -15 0
-7 8 -9 10 -11 -12 13 14 -15 0
-7 8 -9 10 -11 -12 13 -14 15 0
-7 8 -9 10 -11 -12 13 -14 -15 0
-7 8 -9 10 -11 -12 -13 14 15 0
-7 8 -9 10 -11 -12 -13 14 -15 0
-7 8 -9 10 -11 -12 -13 -14 15 0
-7 8 -9 10 -11 -12 -13 -14 -15 0
-7 8 -9 -10 11 12 13 14 15 0
-7 8 -9 -10 -11 12 13 14 -15 0
-7 8 -9 -10 -11 12 13 -14 15 0
-7 8 -9 -10 -11 12 13 -14 -15 0
-7 8 -9 -10 -11 12 -13 14 15 0
-7 8 -9 -10 -11 12 -13 14 -15 0
-7 8 -9 -10 -11 12 -13 -14 15 0
-7 8 -9 -10 -11 12 -13 -14 -15 0
-7 8 -9 -10 -11 -12 13 14 15 0
-7 8 -9 -10 -11 -12 13 14 -15 0
-7 8 -9 -10 -11 -12 13 -14 15 0
-7 8 -9 -10 -11 -12 13 -14 -15 0
-7 8 -9 -10 -11 -12 -13 14 15 0
-7 8 -9 -10 -11 -12 -13 14 -15 0
-7 8 -9 -10 -11 -12 -13 -14 15 0
-7 8 -9 -10 -11 -12 -13 -14 -15 0
-7 -8 9 10 11 12 13 14 -15 0
-7 -8 9 10 11 12 13 -14 15 0
-7 -8 9 10 11 12 -13 14 15 0
-7 -8 9 10 11 -12 13 14 15 0
-7 -8 9 10 -11 12 13 -14 -15 0
-7 -8 9 10 -11 12 -13 14 -15 0
-7 -8 9 10 -11 12 -13 -14 15 0
-7 -8 9 10 -11 12 -13 -14 -15 0
-7 -8 9 10 -11 -12 13 14 -15 0
-7 -8 9 10 -11 -12 13 -14 15 0
-7 -8 9 10 -11 -12 13 -14 -15 0
-7 -8 9 10 -11 -12 -13 14 15 0
-7 -8 9 10 -11 -12 -13 14 -15 0
-7 -8 9 10 -11 -12 -13 -14 15 0
-7 -8 9 10 -11 -12 -13 -14 -15 0
-7 -8 9 -10 11 12 13 14 15 0
-7 -8 9 -10 -11 12 13 14 -15 0
-7 -8 9 -10 -11 12 13 -14 15 0
-7 -8 9 -10 -11 12 13 -14 -15 0
-7 -8 9 -10 -11 12 -13 14 15 0
-7 -8 9 -10 -11 12 -13 14 -15 0
-7 -8 9 -10 -11 12 -13 -14 15 0
-7 -8 9 -10 -11 12 -13 -14 -15 0
-7 -8 9 -10 -11 -12 13 14 15 0
-7 -8 9 -10 -11 -12 13 14 -15 0
-7 -8 9 -10 -11 -12 13 -14 15 0
-7 -8 9 -10 -11 -12 13 -14 -15 0
-7 -8 9 -10 -11 -12 -13 14 15 0
-7 -8 9 -10 -11 -12 -13 14 -15 0
-7 -8 9 -10 -11 -12 -13 -14 15 0
-7 -8 9 -10 -11 -12 -13 -14 -15 0
-7 -8 -9 10 11 12 13 14 15 0
-7 -8 -9 10 -11 12 13 14 -15 0
-7 -8 -9 10 -11 12 13 -14 15 0
-7 -8 -9 10 -11 12 13 -14 -15 0
-7 -8 -9 10 -11 12 -13 14 15 0
-7 -8 -9 10 -11 12 -13 14 -15 0
-7 -8 -9 10 -11 12 -13 -14 15 0
-7 -8 -9 10 -11 12 -13 -14 -15 0
-7 -8 -9 10 -11 -12 13 14 15 0
-7 -8 -9 10 -11 -12 13 14 -15 0
-7 -8 -9 10 -11 -12 13 -14 15 0
-7 -8 -9 10 -11 -12 13 -14 -15 0
-7 -8 -9 10 -11 -12 -13 14 15 0
-7 -8 -9 10 -11 -12 -13 14 -15 0
-7 -8 -9 10 -11 -12 -13 -14 15 0
-7 -8 -9 10 -11 -12 -13 -14 -15 0
-7 -8 -9 -10 -11 12 13 14 15 0
-7 -8 -9 -10 -11 12 13 14 -15 0
-7 -8 -9 -10 -11 12 13 -14 15 0
-7 -8 -9 -10 -11 12 13 -14 -15 0
-7 -8 -9 -10 -11 12 -13 14 15 0
-7 -8 -9 -10 -11 12 -13 14 -15 0
-7 -8 -9 -10 -11 12 -13 -14 15 0
-7 -8 -9 -10 -11 12 -13 -14 -15 0
-7 -8 -9 -10 -11 -12 13 14 15 0
-7 -8 -9 -10 -11 -12 13 14 -15 0
-7 -8 -9 -10 -11 -12 13 -14 15 0
-7 -8 -9 -10 -11 -12 13 -14 -15 0
-7 -8 -9 -10 -11 -12 -13 14 15 0
-7 -8 -9 -10 -11 -12 -13 14 -15 0
-7 -8 -9 -10 -11 -12 -13 -14 15 0
-7 -8 -9 -10 -11 -12 -13 -14 -15 0
8 9 11 -12 14 15 0
8 9 11 -12 14 -15 0
8 9 11 -12 -14 15 0
8 9 -11 12 -14 -15 0
8 9 -11 -12 14 15 0
8 -9 11 12 -14 -15 0
8 -9 11 -12 14 15 0
8 -9 -11 12 14 -15 0
8 -9 -11 12 -14 15 0
8 -9 -11 -12 -14 -15 0
-8 9 11 12 -14 -15 0
-8 9 11 -12 14 15 0
-8 9 -11 12 14 -15 0
-8 9 -11 12 -14 15 0
-8 9 -11 -12 -14 -15 0
-8 -9 11 12 14 -15 0
-8 -9 11 12 -14 15 0
-8 -9 11 -12 -14 -15 0
-8 -9 -11 12 14 15 0
-8 -9 -11 -12 14 -15 0
-8 -9 -11 -12 -14 15 0
-8 -9 -11 -12 -14 -15 0
-9 -12 -15 0
-10 -13 -16 0
10 11 13 -14 -16 -17 0
10 11 -13 14 16 17 0
10 11 -13 14 16 -17 0
10 11 -13 14 -16 17 0
10 11 -13 -14 16 17 0
10 -11 13 14 -16 -17 0
10 -11 13 -14 16 -17 0
10 -11 13 -14 -16 17 0
10 -11 -13 14 16 17 0
10 -11 -13 -14 -16 -17 0
-10 11 13 14 -16 -17 0
-10 11 13 -14 16 -17 0
-10 11 13 -14 -16 17 0
-10 11 -13 14 16 17 0
-10 11 -13 -14 -16 -17 0
-10 -11 13 14 16 -17 0
-10 -11 13 14 -16 17 0
-10 -11 13 -14 16 17 0
-10 -11 -13 14 -16 -17 0
-10 -11 -13 -14 16 -17 0
-10 -11 -13 -14 -16 17 0
-10 -11 -13 -14 -16 -17 0
10 11 12 13 14 15 -16 -17 -18 0
10 11 12 13 14 -15 16 -17 -18 0
10 11 12 13 14 -15 -16 17 -18 0
10 11 12 13 14 -15 -16 -17 18 0
10 11 12 13 -14 15 16 17 18 0
10 11 12 13 -14 15 16 17 -18 0
10 11 12 13 -14 15 16 -17 18 0
10 11 12 13 -14 15 -16 17 18 0
10 11 12 13 -14 -15 16 17 18 0
10 11 12 13 -14 -15 -16 -17 -18 0
10 11 12 -13 14 15 16 -17 -18 0
10 11 12 -13 14 15 -16 17 -18 0
10 11 12 -13 14 15 -16 -17 18 0
10 11 12 -13 14 -15 16 17 -18 0
10 11 12 -13 14 -15 16 -17 18 0
10 11 12 -13 14 -15 -16 17 18 0
10 11 12 -13 -14 15 16 17 18 0
10 11 12 -13 -14 15 -16 -17 -18 0
10 11 12 -13 -14 -15 16 -17 -18 0
10 11 12 -13 -14 -15 -16 17 -18 0
10 11 12 -13 -14 -15 -16 -17 18 0
10 11 12 -13 -14 -15 -16 -17 -18 0
10 11 -12 13 14 15 16 -17 -18 0
10 11 -12 13 14 15 -16 17 -18 0
10 11 -12 13 14 15 -16 -17 18 0
10 11 -12 13 14 -15 16 17 -18 0
10 11 -12 13 14 -15 16 -17 18 0
10 11 -12 13 14 -15 -16 17 18 0
10 11 -12 13 -14 15 16 17 18 0
10 11 -12 13 -14 15 -16 -17 -18 0
10 11 -12 13 -14 -15 16 -17 -18 0
10 11 -12 13 -14 -15 -16 17 -18 0
10 11 -12 13 -14 -15 -16 -17 18 0
10 11 -12 13 -14 -15 -16 -17 -18 0
10 11 -12 -13 14 15 16 17 -18 0
10 11 -12 -13 14 15 16 -17 18 0
10 11 -12 -13 14 15 -16 17 18 0
10 11 -12 -13 14 -15 16 17 18 0
10 11 -12 -13 -14 15 16 -17 -18 0
10 11 -12 -13 -14 15 -16 17 -18 0
10 11 -12 -13 -14 15 -16 -17 18 0
10 11 -12 -13 -14 15 -16 -17 -18 0
10 11 -12 -13 -14 -15 16 17 -18 0
10 11 -12 -13 -14 -15 16 -17 18 0
10 11 -12 -13 -14 -15 16 -17 -18 0
10 11 -12 -13 -14 -15 -16 17 18 0
10 11 -12 -13 -14 -15 -16 17 -18 0
10 11 -12 -13 -14 -15 -16 -17 18 0
10 11 -12 -13 -14 -15 -16 -17 -18 0
10 -11 12 13 14 15 16 -17 -18 0
10 -11 12 13 14 15 -16 17 -18 0
10 -11 12 13 14 15 -16 -17 18 0
10 -11 12 13 14 -15 16 17 -18 0
10 -11 12 13 14 -15 16 -17 18 0
10 -11 12 13 14 -15 -16 17 18 0
10 -11 12 13 -14 15 16 17 18 0
10 -11 12 13 -14 15 -16 -17 -18 0
10 -11 12 13 -14 -15 16 -17 -18 0
10 -11 12 13 -14 -15 -16 17 -18 0
10 -11 12 13 -14 -15 -16 -17 18 0
10 -11 12 13 -14 -15 -16 -17 -18 0
10 -11 12 -13 14 15 16 17 -18 0
10 -11 12 -13 14 15 16 -17 18 0
10 -11 12 -13 14 15 -16 17 18 0
10 -11 12 -13 14 -15 16 17 18 0
10 -11 12 -13 -14 15 16 -17 -18 0
10 -11 12 -13 -14 15 -16 17 -18 0
10 -11 12 -13 -14 15 -16 -17 18 0
10 -11 12 -13 -14 15 -16 -17 -18 0
10 -11 12 -13 -14 -15 16 17 -18 0
10 -11 12 -13 -14 -15 16 -17 18 0
10 -11 12 -13 -14 -15 16 -17 -18 0
10 -11 12 -13 -14 -15 -16 17 18 0
10 -11 12 -13 -14 -15 -16 17 -18 0
10 -11 12 -13 -14 -15 -16 -17 18 0
10 -11 12 -13 -14 -15 -16 -17 -18 0
10 -11 -12 13 14 15 16 17 -18 0
10 -11 -12 13 14 15 16 -17 18 0
10 -11 -12 13 14 15 -16 17 18 0
10 -11 -12 13 14 -15 16 17 18 0
10 -11 -12 13 -14 15 16 -17 -18 0
10 -11 -12 13 -14 15 -16 17 -18 0
10 -11 -12 13 -14 15 -16 -17 18 0
10 -11 -12 13 -14 15 -16 -17 -18 0
10 -11 -12 13 -14 -15 16 17 -18 0
10 -11 -12 13 -14 -15 16 -17 18 0
10 -11 -12 13 -14 -15 16 -17 -18 0
10 -11 -12 13 -14 -15 -16 17 18 0
10 -11 -12 13 -14 -15 -16 17 -18 0
10 -11 -12 13 -14 -15 -16 -17 18 0
10 -11 -12 13 -14 -15 -16 -17 -18 0
10 -11 -12 -13 14 15 16 17 18 0
10 -11 -12 -13 -14 15 16 17 -18 0
10 -11 -12 -13 -14 15 16 -17 18 0
10 -11 -12 -13 -14 15 16 -17 -18 0
10 -11 -12 -13 -14 15 -16 17 18 0
10 -11 -12 -13 -14 15 -16 17 -18 0
10 -11 -12 -13 -14 15 -16 -17 18 0
10 -11 -12 -13 -14 15 -16 -17 -18 0
10 -11 -12 -13 -14 -15 16 17 18 0
10 -11 -12 -13 -14 -15 16 17 -18 0
10 -11 -12 -13 -14 -15 16 -17 18 0
10 -11 -12 -13 -14 -15 16 -17 -18 0
10 -11 -12 -13 -14 -15 -16 17 18 0
10 -11 -12 -13 -14 -15 -16 17 -18 0
10 -11 -12 -13 -14 -15 -16 -17 18 0
10 -11 -12 -13 -14 -15 -16 -17 -18 0
-10 11 12 13 14 15 16 -17 -18 0
-10 11 12 13 14 15 -16 17 -18 0
-10 11 12 13 14 15 -16 -17 18 0
-10 11 12 13 14 -15 16 17 -18 0
-10 11 12 13 14 -15 16 -17 18 0
-10 11 12 13 14 -15 -16 17 18 0
-10 11 12 13 -14 15 16 17 18 0
-10 11 12 13 -14 15 -16 -17 -18 0
-10 11 12 13 -14 -15 16 -17 -18 0
-10 11 12 13 -14 -15 -16 17 -18 0
-10 11 12 13 -14 -15 -16 -17 18 0
-10 11 12 13 -14 -15 -16 -17 -18 0
-10 11 12 -13 14 15 16 17 -18 0
-10 11 12 -13 14 15 16 -17 18 0
-10 11 12 -13 14 15 -16 17 18 0
-10 11 12 -13 14 -15 16 17 18 0
-10 11 12 -13 -14 15 16 -17 -18 0
-10 11 12 -13 -14 15 -16 17 -18 0
-10 11 12 -13 -14 15 -16 -17 18 0
-10 11 12 -13 -14 15 -16 -17 -18 0
-10 11 12 -13 -14 -15 16 17 -18 0
-10 11 12 -13 -14 -15 16 -17 18 0
-10 11 12 -13 -14 -15 16 -17 -18 0
-10 11 12 -13 -14 -15 -16 17 18 0
-10 11 12 -13 -14 -15 -16 17 -18 0
-10 11 12 -13 -14 -15 -16 -17 18 0
-10 11 12 -13 -14 -15 -16 -17 -18 0
-10 11 -12 13 14 15 16 17 -18 0
-10 11 -12 13 14 15 16 -17 18 0
-10 11 -12 13 14 15 -16 17 18 0
-10 11 -12 13 14 -15 16 17 18 0
-10 11 -12 13 -14 15 16 -17 -18 0
-10 11 -12 13 -14 15 -16 17 -18 0
-10 11 -12 13 -14 15 -16 -17 18 0
-10 11 -12 13 -14 15 -16 -17 -18 0
-10 11 -12 13 -14 -15 16 17 -18 0
-10 11 -12 13 -14 -15 16 -17 18 0
-10 11 -12 13 -14 -15 16 -17 -18 0
-10 11 -12 13 -14 -15 -16 17 18 0
-10 11 -12 13 -14 -15 -16 17 -18 0
-10 11 -12 13 -14 -15 -16 -17 18 0
-10 11 -12 13 -14 -15 -16 -17 -18 0
-10 11 -12 -13 14 15 16 17 18 0
-10 11 -12 -13 -14 15 16 17 -18 0
-10 11 -12 -13 -14 15 16 -17 18 0
-10 11 -12 -13 -14 15 16 -17 -18 0
-10 11 -12 -13 -14 15 -16 17 18 0
-10 11 -12 -13 -14 15 -16 17 -18 0
-10 11 -12 -13 -14 15 -16 -17 18 0
-10 11 -12 -13 -14 15 -16 -17 -18 0
-10 11 -12 -13 -14 -15 16 17 18 0
-10 11 -12 -13 -14 -15 16 17 -18 0
-10 11 -12 -13 -14 -15 16 -17 18 0
-10 11 -12 -13 -14 -15 16 -17 -18 0
-10 11 -12 -13 -14 -15 -16 17 18 0
-10 11 -12 -13 -14 -15 -16 17 -18 0
-10 11 -12 -13 -14 -15 -16 -17 18 0
-10 11 -12 -13 -14 -15 -16 -17 -18 0
-10 -11 12 13 14 15 16 17 -18 0
-10 -11 12 13 14 15 16 -17 18 0
-10 -11 12 13 14 15 -16 17 18 0
-10 -11 12 13 14 -15 16 17 18 0
-10 -11 12 13 -14 15 16 -17 -18 0
-10 -11 12 13 -14 15 -16 17 -18 0
-10 -11 12 13 -14 15 -16 -17 18 0
-10 -11 12 13 -14 15 -16 -17 -18 0
-10 -11 12 13 -14 -15 16 17 -18 0
-10 -11 12 13 -14 -15 16 -17 18 0
-10 -11 12 13 -14 -15 16 -17 -18 0
-10 -11 12 13 -14 -15 -16 17 18 0
-10 -11 12 13 -14 -15 -16 17 -18 0
-10 -11 12 13 -14 -15 -16 -17 18 0
-10 -11 12 13 -14 -15 -16 -17 -18 0
-10 -11 12 -13 14 15 16 17 18 0
-10 -11 12 -13 -14 15 16 17 -18 0
-10 -11 12 -13 -14 15 16 -17 18 0
-10 -11 12 -13 -14 15 16 -17 -18 0
-10 -11 12 -13 -14 15 -16 17 18 0
-10 -11 12 -13 -14 15 -16 17 -18 0
-10 -11 12 -13 -14 15 -16 -17 18 0
-10 -11 12 -13 -14 15 -16 -17 -18 0
-10 -11 12 -13 -14 -15 16 17 18 0
-10 -11 12 -13 -14 -15 16 17 -18 0
-10 -11 12 -13 -14 -15 16 -17 18 0
-10 -11 12 -13 -14 -15 16 -17 -18 0
-10 -11 12 -13 -14 -15 -16 17 18 0
-10 -11 12 -13 -14 -15 -16 17 -18 0
-10 -11 12 -13 -14 -15 -16 -17 18 0
-10 -11 12 -13 -14 -15 -16 -17 -18 0
-10 -11 -12 13 14 15 16 17 18 0
-10 -11 -12 13 -14 15 16 17 -18 0
-10 -11 -12 13 -14 15 16 -17 18 0
-10 -11 -12 13 -14 15 16 -17 -18 0
-10 -11 -12 13 -14 15 -16 17 18 0
-10 -11 -12 13 -14 15 -16 17 -18 0
-10 -11 -12 13 -14 15 -16 -17 18 0
-10 -11 -12 13 -14 15 -16 -17 -18 0
-10 -11 -12 13 -14 -15 16 17 18 0
-10 -11 -12 13 -14 -15 16 17 -18 0
-10 -11 -12 13 -14 -15 16 -17 18 0
-10 -11 -12 13 -14 -15 16 -17 -18 0
-10 -11 -12 13 -14 -15 -16 17 18 0
-10 -11 -12 13 -14 -15 -16 17 -18 0
-10 -11 -12 13 -14 -15 -16 -17 18 0
-10 -11 -12 13 -14 -15 -16 -17 -18 0
-10 -11 -12 -13 -14 15 16 17 18 0
-10 -11 -12 -13 -14 15 16 17 -18 0
-10 -11 -12 -13 -14 15 16 -17 18 0
-10 -11 -12 -13 -14 15 16 -17 -18 0
-10 -11 -12 -13 -14 15 -16 17 18 0
-10 -11 -12 -13 -14 15 -16 17 -18 0
-10 -11 -12 -13 -14 15 -16 -17 18 0
-10 -11 -12 -13 -14 15 -16 -17 -18 0
-10 -11 -12 -13 -14 -15 16 17 18 0
-10 -11 -12 -13 -14 -15 16 17 -18 0
-10 -11 -12 -13 -14 -15 16 -17 18 0
-10 -11 -12 -13 -14 -15 16 -17 -18 0
-10 -11 -12 -13 -14 -15 -16 17 18 0
-10 -11 -12 -13 -14 -15 -16 17 -18 0
-10 -11 -12 -13 -14 -15 -16 -17 18 0
-10 -11 -12 -13 -14 -15 -16 -17 -18 0
11 12 14 -15 17 18 0
11 12 14 -15 17 -18 0
11 12 14 -15 -17 18 0
11 12 -14 15 -17 -18 0
11 12 -14 -15 17 18 0
11 -12 14 15 -17 -18 0
11 -12 14 -15 17 18 0
11 -12 -14 15 17 -18 0
11 -12 -14 15 -17 18 0
11 -12 -14 -15 -17 -18 0
-11 12 14 15 -17 -18 0
-11 12 14 -15 17 18 0
-11 12 -14 15 17 -18 0
-11 12 -14 15 -17 18 0
-11 12 -14 -15 -17 -18 0
-11 -12 14 15 17 -18 0
-11 -12 14 15 -17 18 0
-11 -12 14 -15 -17 -18 0
-11 -12 -14 15 17 18 0
-11 -12 -14 -15 17 -18 0
-11 -12 -14 -15 -17 18 0
-11 -12 -14 -15 -17 -18 0
-12 -15 -18 0
13 14 -16 17 0
13 14 -16 -17 0
13 -14 -16 17 0
-13 14 -16 17 0
-13 -14 16 -17 0
13 14 15 16 -17 18 0
13 14 15 16 -17 -18 0
13 14 15 -16 -17 18 0
13 14 -15 16 -17 18 0
13 14 -15 -16 17 -18 0
13 -14 15 16 -17 18 0
13 -14 15 -16 17 -18 0
13 -14 -15 16 17 -18 0
13 -14 -15 -16 17 18 0
13 -14 -15 -16 -17 -18 0
-13 14 15 16 -17 18 0
-13 14 15 -16 17 -18 0
-13 14 -15 16 17 -18 0
-13 14 -15 -16 17 18 0
-13 14 -15 -16 -17 -18 0
-13 -14 15 16 17 -18 0
-13 -14 15 -16 17 18 0
-13 -14 15 -16 -17 -18 0
-13 -14 -15 16 17 18 0
-13 -14 -15 16 -17 -18 0
-13 -14 -15 -16 -17 18 0
-13 -14 -15 -16 -17 -18 0
14 15 17 -18 0
14 15 -17 -18 0
14 -15 17 -18 0
-14 15 17 -18 0
-14 -15 -17 18 0
-16 -17 -18 0
1 2 3 0
16 17 18 0
1 4 7 10 13 16 0
3 6 9 12 15 18 0
1 2 3 4 5 6 7 8 9 10 11 12 13 14 15 16 17 18 0
1 -2 -3 4 -5 -6 7 8 9 10 11 12 -13 -14 15 -16 -17 18 0
1 -2 -3 -4 5 -6 -7 8 9 10 -11 12 13 14 -15 16 -17 -18 0
1 -2 -3 4 -5 -6 7 8 9 10 -11 -12 -13 14 -15 16 -17 18 0
1 -2 -3 4 -5 -6 7 8 9 10 -11 -12 -13 14 -15 -16 -17 18 0
-1 -2 3 -4 -5 6 7 8 9 -10 -11 12 -13 14 -15 16 -17 18 0
-1 -2 3 -4 -5 6 7 8 9 -10 -11 12 -13 14 -15 16 -17 -18 0
-1 -2 3 -4 -5 6 7 8 9 10 11 12 13 -14 -15 16 -17 -18 0
-1 -2 3 -4 5 -6 7 8 -9 10 -11 12 -13 14 15 -16 -17 18 0
-1 -2 3 -4 5 -6 7 -8 -9 10 11 12 13 -14 -15 16 -17 -18 0
1 -2 3 -4 5 -6 7 -8 -9 10 11 12 13 -14 -15 16 -17 -18 0
1 -2 -3 4 5 -6 7 -8 9 -10 11 12 -13 14 -15 16 -17 -18 0
-1 -2 3 -4 5 6 7 -8 9 10 11 -12 -13 14 -15 -16 -17 18 0
1 -2 3 -4 5 -6 -7 -8 9 10 11 12 -13 -14 15 -16 -17 18 0
1 -2 -3 -4 5 -6 -7 -8 9 10 11 12 -13 -14 15 -16 -17 18 0
