p cnf 20 1642
-1 -2 -3 0
-2 -3 -4 0
1 -2 -5 -6 0
-1 2 5 6 0
-1 2 5 -6 0
-1 2 -5 6 0
-1 -2 5 6 0
1 2 3 -5 -6 -7 0
1 2 -3 5 -6 -7 0
1 2 -3 -5 6 -7 0
1 2 -3 -5 -6 7 0
1 -2 3 5 6 7 0
1 -2 3 5 6 -7 0
1 -2 3 5 -6 7 0
1 -2 3 -5 6 7 0
1 -2 -3 5 6 7 0
1 -2 -3 -5 -6 -7 0
-1 2 3 5 -6 -7 0
-1 2 3 -5 6 -7 0
-1 2 3 -5 -6 7 0
-1 2 -3 5 6 -7 0
-1 2 -3 5 -6 7 0
-1 2 -3 -5 6 7 0
-1 -2 3 5 6 7 0
-1 -2 3 -5 -6 -7 0
-1 -2 -3 5 -6 -7 0
-1 -2 -3 -5 6 -7 0
-1 -2 -3 -5 -6 7 0
-1 -2 -3 -5 -6 -7 0
2 3 4 -6 -7 -8 0
2 3 -4 6 -7 -8 0
2 3 -4 -6 7 -8 0
2 3 -4 -6 -7 8 0
2 -3 4 6 7 8 0
2 -3 4 6 7 -8 0
2 -3 4 6 -7 8 0
2 -3 4 -6 7 8 0
2 -3 -4 6 7 8 0
2 -3 -4 -6 -7 -8 0
-2 3 4 6 -7 -8 0
-2 3 4 -6 7 -8 0
-2 3 4 -6 -7 8 0
-2 3 -4 6 7 -8 0
-2 3 -4 6 -7 8 0
-2 3 -4 -6 7 8 0
-2 -3 4 6 7 8 0
-2 -3 4 -6 -7 -8 0
-2 -3 -4 6 -7 -8 0
-2 -3 -4 -6 7 -8 0
-2 -3 -4 -6 -7 8 0
-2 -3 -4 -6 -7 -8 0
3 -4 7 8 0
3 -4 7 -8 0
3 -4 -7 8 0
-3 4 -7 -8 0
-3 -4 7 8 0
-1 -5 -9 0
1 2 5 -6 -9 -10 0
1 2 -5 6 9 10 0
1 2 -5 6 9 -10 0
1 2 -5 6 -9 10 0
1 2 -5 -6 9 10 0
1 -2 5 6 -9 -10 0
1 -2 5 -6 9 -10 0
1 -2 5 -6 -9 10 0
1 -2 -5 6 9 10 0
1 -2 -5 -6 -9 -10 0
-1 2 5 6 -9 -10 0
-1 2 5 -6 9 -10 0
-1 2 5 -6 -9 10 0
-1 2 -5 6 9 10 0
-1 2 -5 -6 -9 -10 0
-1 -2 5 6 9 -10 0
-1 -2 5 6 -9 10 0
-1 -2 5 -6 9 10 0
-1 -2 -5 6 -9 -10 0
-1 -2 -5 -6 9 -10 0
-1 -2 -5 -6 -9 10 0
-1 -2 -5 -6 -9 -10 0
1 2 3 5 6 7 -9 -10 -11 0
1 2 3 5 6 -7 9 -10 -11 0
1 2 3 5 6 -7 -9 10 -11 0
1 2 3 5 6 -7 -9 -10 11 0
1 2 3 5 -6 7 9 10 11 0
1 2 3 5 -6 7 9 10 -11 0
1 2 3 5 -6 7 9 -10 11 0
1 2 3 5 -6 7 -9 10 11 0
1 2 3 5 -6 -7 9 10 11 0
1 2 3 5 -6 -7 -9 -10 -11 0
1 2 3 -5 6 7 9 -10 -11 0
1 2 3 -5 6 7 -9 10 -11 0
1 2 3 -5 6 7 -9 -10 11 0
1 2 3 -5 6 -7 9 10 -11 0
1 2 3 -5 6 -7 9 -10 11 0
1 2 3 -5 6 -7 -9 10 11 0
1 2 3 -5 -6 7 9 10 11 0
1 2 3 -5 -6 7 -9 -10 -11 0
1 2 3 -5 -6 -7 9 -10 -11 0
1 2 3 -5 -6 -7 -9 10 -11 0
1 2 3 -5 -6 -7 -9 -10 11 0
1 2 3 -5 -6 -7 -9 -10 -11 0
1 2 -3 5 6 7 9 -10 -11 0
1 2 -3 5 6 7 -9 10 -11 0
1 2 -3 5 6 7 -9 -10 11 0
1 2 -3 5 6 -7 9 10 -11 0
1 2 -3 5 6 -7 9 -10 11 0
1 2 -3 5 6 -7 -9 10 11 0
1 2 -3 5 -6 7 9 10 11 0
1 2 -3 5 -6 7 -9 -10 -11 0
1 2 -3 5 -6 -7 9 -10 -11 0
1 2 -3 5 -6 -7 -9 10 -11 0
1 2 -3 5 -6 -7 -9 -10 11 0
1 2 -3 5 -6 -7 -9 -10 -11 0
1 2 -3 -5 6 7 9 10 -11 0
1 2 -3 -5 6 7 9 -10 11 0
1 2 -3 -5 6 7 -9 10 11 0
1 2 -3 -5 6 -7 9 10 11 0
1 2 -3 -5 -6 7 9 -10 -11 0
1 2 -3 -5 -6 7 -9 10 -11 0
1 2 -3 -5 -6 7 -9 -10 11 0
1 2 -3 -5 -6 7 -9 -10 -11 0
1 2 -3 -5 -6 -7 9 10 -11 0
1 2 -3 -5 -6 -7 9 -10 11 0
1 2 -3 -5 -6 -7 9 -10 -11 0
1 2 -3 -5 -6 -7 -9 10 11 0
1 2 -3 -5 -6 -7 -9 10 -11 0
1 2 -3 -5 -6 -7 -9 -10 11 0
1 2 -3 -5 -6 -7 -9 -10 -11 0
1 -2 3 5 6 7 9 -10 -11 0
1 -2 3 5 6 7 -9 10 -11 0
1 -2 3 5 6 7 -9 -10 11 0
1 -2 3 5 6 -7 9 10 -11 0
1 -2 3 5 6 -7 9 -10 11 0
1 -2 3 5 6 -7 -9 10 11 0
1 -2 3 5 -6 7 9 10 11 0
1 -2 3 5 -6 7 -9 -10 -11 0
1 -2 3 5 -6 -7 9 -10 -11 0
1 -2 3 5 -6 -7 -9 10 -11 0
1 -2 3 5 -6 -7 -9 -10 11 0
1 -2 3 5 -6 -7 -9 -10 -11 0
1 -2 3 -5 6 7 9 10 -11 0
1 -2 3 -5 6 7 9 -10 11 0
1 -2 3 -5 6 7 -9 10 11 0
1 -2 3 -5 6 -7 9 10 11 0
1 -2 3 -5 -6 7 9 -10 -11 0
1 -2 3 -5 -6 7 -9 10 -11 0
1 -2 3 -5 -6 7 -9 -10 11 0
1 -2 3 -5 -6 7 -9 -10 -11 0
1 -2 3 -5 -6 -7 9 10 -11 0
1 -2 3 -5 -6 -7 9 -10 11 0
1 -2 3 -5 -6 -7 9 -10 -11 0
1 -2 3 -5 -6 -7 -9 10 11 0
1 -2 3 -5 -6 -7 -9 10 -11 0
1 -2 3 -5 -6 -7 -9 -10 11 0
1 -2 3 -5 -6 -7 -9 -10 -11 0
1 -2 -3 5 6 7 9 10 -11 0
1 -2 -3 5 6 7 9 -10 11 0
1 -2 -3 5 6 7 -9 10 11 0
1 -2 -3 5 6 -7 9 10 11 0
1 -2 -3 5 -6 7 9 -10 -11 0
1 -2 -3 5 -6 7 -9 10 -11 0
1 -2 -3 5 -6 7 -9 -10 11 0
1 -2 -3 5 -6 7 -9 -10 -11 0
1 -2 -3 5 -6 -7 9 10 -11 0
1 -2 -3 5 -6 -7 9 -10 11 0
1 -2 -3 5 -6 -7 9 -10 -11 0
1 -2 -3 5 -6 -7 -9 10 11 0
1 -2 -3 5 -6 -7 -9 10 -11 0
1 -2 -3 5 -6 -7 -9 -10 11 0
1 -2 -3 5 -6 -7 -9 -10 -11 0
1 -2 -3 -5 6 7 9 10 11 0
1 -2 -3 -5 -6 7 9 10 -11 0
1 -2 -3 -5 -6 7 9 -10 11 0
1 -2 -3 -5 -6 7 9 -10 -11 0
1 -2 -3 -5 -6 7 -9 10 11 0
1 -2 -3 -5 -6 7 -9 10 -11 0
1 -2 -3 -5 -6 7 -9 -10 11 0
1 -2 -3 -5 -6 7 -9 -10 -11 0
1 -2 -3 -5 -6 -7 9 10 11 0
1 -2 -3 -5 -6 -7 9 10 -11 0
1 -2 -3 -5 -6 -7 9 -10 11 0
1 -2 -3 -5 -6 -7 9 -10 -11 0
1 -2 -3 -5 -6 -7 -9 10 11 0
1 -2 -3 -5 -6 -7 -9 10 -11 0
1 -2 -3 -5 -6 -7 -9 -10 11 0
1 -2 -3 -5 -6 -7 -9 -10 -11 0
-1 2 3 5 6 7 9 -10 -11 0
-1 2 3 5 6 7 -9 10 -11 0
-1 2 3 5 6 7 -9 -10 11 0
-1 2 3 5 6 -7 9 10 -11 0
-1 2 3 5 6 -7 9 -10 11 0
-1 2 3 5 6 -7 -9 10 11 0
-1 2 3 5 -6 7 9 10 11 0
-1 2 3 5 -6 7 -9 -10 -11 0
-1 2 3 5 -6 -7 9 -10 -11 0
-1 2 3 5 -6 -7 -9 10 -11 0
-1 2 3 5 -6 -7 -9 -10 11 0
-1 2 3 5 -6 -7 -9 -10 -11 0
-1 2 3 -5 6 7 9 10 -11 0
-1 2 3 -5 6 7 9 -10 11 0
-1 2 3 -5 6 7 -9 10 11 0
-1 2 3 -5 6 -7 9 10 11 0
-1 2 3 -5 -6 7 9 -10 -11 0
-1 2 3 -5 -6 7 -9 10 -11 0
-1 2 3 -5 -6 7 -9 -10 11 0
-1 2 3 -5 -6 7 -9 -10 -11 0
-1 2 3 -5 -6 -7 9 10 -11 0
-1 2 3 -5 -6 -7 9 -10 11 0
-1 2 3 -5 -6 -7 9 -10 -11 0
-1 2 3 -5 -6 -7 -9 10 11 0
-1 2 3 -5 -6 -7 -9 10 -11 0
-1 2 3 -5 -6 -7 -9 -10 11 0
-1 2 3 -5 -6 -7 -9 -10 -11 0
-1 2 -3 5 6 7 9 10 -11 0
-1 2 -3 5 6 7 9 -10 11 0
-1 2 -3 5 6 7 -9 10 11 0
-1 2 -3 5 6 -7 9 10 11 0
-1 2 -3 5 -6 7 9 -10 -11 0
-1 2 -3 5 -6 7 -9 10 -11 0
-1 2 -3 5 -6 7 -9 -10 11 0
-1 2 -3 5 -6 7 -9 -10 -11 0
-1 2 -3 5 -6 -7 9 10 -11 0
-1 2 -3 5 -6 -7 9 -10 11 0
-1 2 -3 5 -6 -7 9 -10 -11 0
-1 2 -3 5 -6 -7 -9 10 11 0
-1 2 -3 5 -6 -7 -9 10 -11 0
-1 2 -3 5 -6 -7 -9 -10 11 0
-1 2 -3 5 -6 -7 -9 -10 -11 0
-1 2 -3 -5 6 7 9 10 11 0
-1 2 -3 -5 -6 7 9 10 -11 0
-1 2 -3 -5 -6 7 9 -10 11 0
-1 2 -3 -5 -6 7 9 -10 -11 0
-1 2 -3 -5 -6 7 -9 10 11 0
-1 2 -3 -5 -6 7 -9 10 -11 0
-1 2 -3 -5 -6 7 -9 -10 11 0
-1 2 -3 -5 -6 7 -9 -10 -11 0
-1 2 -3 -5 -6 -7 9 10 11 0
-1 2 -3 -5 -6 -7 9 10 -11 0
-1 2 -3 -5 -6 -7 9 -10 11 0
-1 2 -3 -5 -6 -7 9 -10 -11 0
-1 2 -3 -5 -6 -7 -9 10 11 0
-1 2 -3 -5 -6 -7 -9 10 -11 0
-1 2 -3 -5 -6 -7 -9 -10 11 0
-1 2 -3 -5 -6 -7 -9 -10 -11 0
-1 -2 3 5 6 7 9 10 -11 0
-1 -2 3 5 6 7 9 -10 11 0
-1 -2 3 5 6 7 -9 10 11 0
-1 -2 3 5 6 -7 9 10 11 0
-1 -2 3 5 -6 7 9 -10 -11 0
-1 -2 3 5 -6 7 -9 10 -11 0
-1 -2 3 5 -6 7 -9 -10 11 0
-1 -2 3 5 -6 7 -9 -10 -11 0
-1 -2 3 5 -6 -7 9 10 -11 0
-1 -2 3 5 -6 -7 9 -10 11 0
-1 -2 3 5 -6 -7 9 -10 -11 0
-1 -2 3 5 -6 -7 -9 10 11 0
-1 -2 3 5 -6 -7 -9 10 -11 0
-1 -2 3 5 -6 -7 -9 -10 11 0
-1 -2 3 5 -6 -7 -9 -10 -11 0
-1 -2 3 -5 6 7 9 10 11 0
-1 -2 3 -5 -6 7 9 10 -11 0
-1 -2 3 -5 -6 7 9 -10 11 0
-1 -2 3 -5 -6 7 9 -10 -11 0
-1 -2 3 -5 -6 7 -9 10 11 0
-1 -2 3 -5 -6 7 -9 10 -11 0
-1 -2 3 -5 -6 7 -9 -10 11 0
-1 -2 3 -5 -6 7 -9 -10 -11 0
-1 -2 3 -5 -6 -7 9 10 11 0
-1 -2 3 -5 -6 -7 9 10 -11 0
-1 -2 3 -5 -6 -7 9 -10 11 0
-1 -2 3 -5 -6 -7 9 -10 -11 0
-1 -2 3 -5 -6 -7 -9 10 11 0
-1 -2 3 -5 -6 -7 -9 10 -11 0
-1 -2 3 -5 -6 -7 -9 -10 11 0
-1 -2 3 -5 -6 -7 -9 -10 -11 0
-1 -2 -3 5 6 7 9 10 11 0
-1 -2 -3 5 -6 7 9 10 -11 0
-1 -2 -3 5 -6 7 9 -10 11 0
-1 -2 -3 5 -6 7 9 -10 -11 0
-1 -2 -3 5 -6 7 -9 10 11 0
-1 -2 -3 5 -6 7 -9 10 -11 0
-1 -2 -3 5 -6 7 -9 -10 11 0
-1 -2 -3 5 -6 7 -9 -10 -11 0
-1 -2 -3 5 -6 -7 9 10 11 0
-1 -2 -3 5 -6 -7 9 10 -11 0
-1 -2 -3 5 -6 -7 9 -10 11 0
-1 -2 -3 5 -6 -7 9 -10 -11 0
-1 -2 -3 5 -6 -7 -9 10 11 0
-1 -2 -3 5 -6 -7 -9 10 -11 0
-1 -2 -3 5 -6 -7 -9 -10 11 0
-1 -2 -3 5 -6 -7 -9 -10 -11 0
-1 -2 -3 -5 -6 7 9 10 11 0
-1 -2 -3 -5 -6 7 9 10 -11 0
-1 -2 -3 -5 -6 7 9 -10 11 0
-1 -2 -3 -5 -6 7 9 -10 -11 0
-1 -2 -3 -5 -6 7 -9 10 11 0
-1 -2 -3 -5 -6 7 -9 10 -11 0
-1 -2 -3 -5 -6 7 -9 -10 11 0
-1 -2 -3 -5 -6 7 -9 -10 -11 0
-1 -2 -3 -5 -6 -7 9 10 11 0
-1 -2 -3 -5 -6 -7 9 10 -11 0
-1 -2 -3 -5 -6 -7 9 -10 11 0
-1 -2 -3 -5 -6 -7 9 -10 -11 0
-1 -2 -3 -5 -6 -7 -9 10 11 0
-1 -2 -3 -5 -6 -7 -9 10 -11 0
-1 -2 -3 -5 -6 -7 -9 -10 11 0
-1 -2 -3 -5 -6 -7 -9 -10 -11 0
2 3 4 6 7 8 -10 -11 -12 0
2 3 4 6 7 -8 10 -11 -12 0
2 3 4 6 7 -8 -10 11 -12 0
2 3 4 6 7 -8 -10 -11 12 0
2 3 4 6 -7 8 10 11 12 0
2 3 4 6 -7 8 10 11 -12 0
2 3 4 6 -7 8 10 -11 12 0
2 3 4 6 -7 8 -10 11 12 0
2 3 4 6 -7 -8 10 11 12 0
2 3 4 6 -7 -8 -10 -11 -12 0
2 3 4 -6 7 8 10 -11 -12 0
2 3 4 -6 7 8 -10 11 -12 0
2 3 4 -6 7 8 -10 -11 12 0
2 3 4 -6 7 -8 10 11 -12 0
2 3 4 -6 7 -8 10 -11 12 0
2 3 4 -6 7 -8 -10 11 12 0
2 3 4 -6 -7 8 10 11 12 0
2 3 4 -6 -7 8 -10 -11 -12 0
2 3 4 -6 -7 -8 10 -11 -12 0
2 3 4 -6 -7 -8 -10 11 -12 0
2 3 4 -6 -7 -8 -10 -11 12 0
2 3 4 -6 -7 -8 -10 -11 -12 0
2 3 -4 6 7 8 10 -11 -12 0
2 3 -4 6 7 8 -10 11 -12 0
2 3 -4 6 7 8 -10 -11 12 0
2 3 -4 6 7 -8 10 11 -12 0
2 3 -4 6 7 -8 10 -11 12 0
2 3 -4 6 7 -8 -10 11 12 0
2 3 -4 6 -7 8 10 11 12 0
2 3 -4 6 -7 8 -10 -11 -12 0
2 3 -4 6 -7 -8 10 -11 -12 0
2 3 -4 6 -7 -8 -10 11 -12 0
2 3 -4 6 -7 -8 -10 -11 12 0
2 3 -4 6 -7 -8 -10 -11 -12 0
2 3 -4 -6 7 8 10 11 -12 0
2 3 -4 -6 7 8 10 -11 12 0
2 3 -4 -6 7 8 -10 11 12 0
2 3 -4 -6 7 -8 10 11 12 0
2 3 -4 -6 -7 8 10 -11 -12 0
2 3 -4 -6 -7 8 -10 11 -12 0
2 3 -4 -6 -7 8 -10 -11 12 0
2 3 -4 -6 -7 8 -10 -11 -12 0
2 3 -4 -6 -7 -8 10 11 -12 0
2 3 -4 -6 -7 -8 10 -11 12 0
2 3 -4 -6 -7 -8 10 -11 -12 0
2 3 -4 -6 -7 -8 -10 11 12 0
2 3 -4 -6 -7 -8 -10 11 -12 0
2 3 -4 -6 -7 -8 -10 -11 12 0
2 3 -4 -6 -7 -8 -10 -11 -12 0
2 -3 4 6 7 8 10 -11 -12 0
2 -3 4 6 7 8 -10 11 -12 0
2 -3 4 6 7 8 -10 -11 12 0
2 -3 4 6 7 -8 10 11 -12 0
2 -3 4 6 7 -8 10 -11 12 0
2 -3 4 6 7 -8 -10 11 12 0
2 -3 4 6 -7 8 10 11 12 0
2 -3 4 6 -7 8 -10 -11 -12 0
2 -3 4 6 -7 -8 10 -11 -12 0
2 -3 4 6 -7 -8 -10 11 -12 0
2 -3 4 6 -7 -8 -10 -11 12 0
2 -3 4 6 -7 -8 -10 -11 -12 0
2 -3 4 -6 7 8 10 11 -12 0
2 -3 4 -6 7 8 10 -11 12 0
2 -3 4 -6 7 8 -10 11 12 0
2 -3 4 -6 7 -8 10 11 12 0
2 -3 4 -6 -7 8 10 -11 -12 0
2 -3 4 -6 -7 8 -10 11 -12 0
2 -3 4 -6 -7 8 -10 -11 12 0
2 -3 4 -6 -7 8 -10 -11 -12 0
2 -3 4 -6 -7 -8 10 11 -12 0
2 -3 4 -6 -7 -8 10 -11 12 0
2 -3 4 -6 -7 -8 10 -11 -12 0
2 -3 4 -6 -7 -8 -10 11 12 0
2 -3 4 -6 -7 -8 -10 11 -12 0
2 -3 4 -6 -7 -8 -10 -11 12 0
2 -3 4 -6 -7 -8 -10 -11 -12 0
2 -3 -4 6 7 8 10 11 -12 0
2 -3 -4 6 7 8 10 -11 12 0
2 -3 -4 6 7 8 -10 11 12 0
2 -3 -4 6 7 -8 10 11 12 0
2 -3 -4 6 -7 8 10 -11 -12 0
2 -3 -4 6 -7 8 -10 11 -12 0
2 -3 -4 6 -7 8 -10 -11 12 0
2 -3 -4 6 -7 8 -10 -11 -12 0
2 -3 -4 6 -7 -8 10 11 -12 0
2 -3 -4 6 -7 -8 10 -11 12 0
2 -3 -4 6 -7 -8 10 -11 -12 0
2 -3 -4 6 -7 -8 -10 11 12 0
2 -3 -4 6 -7 -8 -10 11 -12 0
2 -3 -4 6 -7 -8 -10 -11 12 0
2 -3 -4 6 -7 -8 -10 -11 -12 0
2 -3 -4 -6 7 8 10 11 12 0
2 -3 -4 -6 -7 8 10 11 -12 0
2 -3 -4 -6 -7 8 10 -11 12 0
2 -3 -4 -6 -7 8 10 -11 -12 0
2 -3 -4 -6 -7 8 -10 11 12 0
2 -3 -4 -6 -7 8 -10 11 -12 0
2 -3 -4 -6 -7 8 -10 -11 12 0
2 -3 -4 -6 -7 8 -10 -11 -12 0
2 -3 -4 -6 -7 -8 10 11 12 0
2 -3 -4 -6 -7 -8 10 11 -12 0
2 -3 -4 -6 -7 -8 10 -11 12 0
2 -3 -4 -6 -7 -8 10 -11 -12 0
2 -3 -4 -6 -7 -8 -10 11 12 0
2 -3 -4 -6 -7 -8 -10 11 -12 0
2 -3 -4 -6 -7 -8 -10 -11 12 0
2 -3 -4 -6 -7 -8 -10 -11 -12 0
-2 3 4 6 7 8 10 -11 -12 0
-2 3 4 6 7 8 -10 11 -12 0
-2 3 4 6 7 8 -10 -11 12 0
-2 3 4 6 7 -8 10 11 -12 0
-2 3 4 6 7 -8 10 -11 12 0
-2 3 4 6 7 -8 -10 11 12 0
-2 3 4 6 -7 8 10 11 12 0
-2 3 4 6 -7 8 -10 -11 -12 0
-2 3 4 6 -7 -8 10 -11 -12 0
-2 3 4 6 -7 -8 -10 11 -12 0
-2 3 4 6 -7 -8 -10 -11 12 0
-2 3 4 6 -7 -8 -10 -11 -12 0
-2 3 4 -6 7 8 10 11 -12 0
-2 3 4 -6 7 8 10 -11 12 0
-2 3 4 -6 7 8 -10 11 12 0
-2 3 4 -6 7 -8 10 11 12 0
-2 3 4 -6 -7 8 10 -11 -12 0
-2 3 4 -6 -7 8 -10 11 -12 0
-2 3 4 -6 -7 8 -10 -11 12 0
-2 3 4 -6 -7 8 -10 -11 -12 0
-2 3 4 -6 -7 -8 10 11 -12 0
-2 3 4 -6 -7 -8 10 -11 12 0
-2 3 4 -6 -7 -8 10 -11 -12 0
-2 3 4 -6 -7 -8 -10 11 12 0
-2 3 4 -6 -7 -8 -10 11 -12 0
-2 3 4 -6 -7 -8 -10 -11 12 0
-2 3 4 -6 -7 -8 -10 -11 -12 0
-2 3 -4 6 7 8 10 11 -12 0
-2 3 -4 6 7 8 10 -11 12 0
-2 3 -4 6 7 8 -10 11 12 0
-2 3 -4 6 7 -8 10 11 12 0
-2 3 -4 6 -7 8 10 -11 -12 0
-2 3 -4 6 -7 8 -10 11 -12 0
-2 3 -4 6 -7 8 -10 -11 12 0
-2 3 -4 6 -7 8 -10 -11 -12 0
-2 3 -4 6 -7 -8 10 11 -12 0
-2 3 -4 6 -7 -8 10 -11 12 0
-2 3 -4 6 -7 -8 10 -11 -12 0
-2 3 -4 6 -7 -8 -10 11 12 0
-2 3 -4 6 -7 -8 -10 11 -12 0
-2 3 -4 6 -7 -8 -10 -11 12 0
-2 3 -4 6 -7 -8 -10 -11 -12 0
-2 3 -4 -6 7 8 10 11 12 0
-2 3 -4 -6 -7 8 10 11 -12 0
-2 3 -4 -6 -7 8 10 -11 12 0
-2 3 -4 -6 -7 8 10 -11 -12 0
-2 3 -4 -6 -7 8 -10 11 12 0
-2 3 -4 -6 -7 8 -10 11 -12 0
-2 3 -4 -6 -7 8 -10 -11 12 0
-2 3 -4 -6 -7 8 -10 -11 -12 0
-2 3 -4 -6 -7 -8 10 11 12 0
-2 3 -4 -6 -7 -8 10 11 -12 0
-2 3 -4 -6 -7 -8 10 -11 12 0
-2 3 -4 -6 -7 -8 10 -11 -12 0
-2 3 -4 -6 -7 -8 -10 11 12 0
-2 3 -4 -6 -7 -8 -10 11 -12 0
-2 3 -4 -6 -7 -8 -10 -11 12 0
-2 3 -4 -6 -7 -8 -10 -11 -12 0
-2 -3 4 6 7 8 10 11 -12 0
-2 -3 4 6 7 8 10 -11 12 0
-2 -3 4 6 7 8 -10 11 12 0
-2 -3 4 6 7 -8 10 11 12 0
-2 -3 4 6 -7 8 10 -11 -12 0
-2 -3 4 6 -7 8 -10 11 -12 0
-2 -3 4 6 -7 8 -10 -11 12 0
-2 -3 4 6 -7 8 -10 -11 -12 0
-2 -3 4 6 -7 -8 10 11 -12 0
-2 -3 4 6 -7 -8 10 -11 12 0
-2 -3 4 6 -7 -8 10 -11 -12 0
-2 -3 4 6 -7 -8 -10 11 12 0
-2 -3 4 6 -7 -8 -10 11 -12 0
-2 -3 4 6 -7 -8 -10 -11 12 0
-2 -3 4 6 -7 -8 -10 -11 -12 0
-2 -3 4 -6 7 8 10 11 12 0
-2 -3 4 -6 -7 8 10 11 -12 0
-2 -3 4 -6 -7 8 10 -11 12 0
-2 -3 4 -6 -7 8 10 -11 -12 0
-2 -3 4 -6 -7 8 -10 11 12 0
-2 -3 4 -6 -7 8 -10 11 -12 0
-2 -3 4 -6 -7 8 -10 -11 12 0
-2 -3 4 -6 -7 8 -10 -11 -12 0
-2 -3 4 -6 -7 -8 10 11 12 0
-2 -3 4 -6 -7 -8 10 11 -12 0
-2 -3 4 -6 -7 -8 10 -11 12 0
-2 -3 4 -6 -7 -8 10 -11 -12 0
-2 -3 4 -6 -7 -8 -10 11 12 0
-2 -3 4 -6 -7 -8 -10 11 -12 0
-2 -3 4 -6 -7 -8 -10 -11 12 0
-2 -3 4 -6 -7 -8 -10 -11 -12 0
-2 -3 -4 6 7 8 10 11 12 0
-2 -3 -4 6 -7 8 10 11 -12 0
-2 -3 -4 6 -7 8 10 -11 12 0
-2 -3 -4 6 -7 8 10 -11 -12 0
-2 -3 -4 6 -7 8 -10 11 12 0
-2 -3 -4 6 -7 8 -10 11 -12 0
-2 -3 -4 6 -7 8 -10 -11 12 0
-2 -3 -4 6 -7 8 -10 -11 -12 0
-2 -3 -4 6 -7 -8 10 11 12 0
-2 -3 -4 6 -7 -8 10 11 -12 0
-2 -3 -4 6 -7 -8 10 -11 12 0
-2 -3 -4 6 -7 -8 10 -11 -12 0
-2 -3 -4 6 -7 -8 -10 11 12 0
-2 -3 -4 6 -7 -8 -10 11 -12 0
-2 -3 -4 6 -7 -8 -10 -11 12 0
-2 -3 -4 6 -7 -8 -10 -11 -12 0
-2 -3 -4 -6 -7 8 10 11 12 0
-2 -3 -4 -6 -7 8 10 11 -12 0
-2 -3 -4 -6 -7 8 10 -11 12 0
-2 -3 -4 -6 -7 8 10 -11 -12 0
-2 -3 -4 -6 -7 8 -10 11 12 0
-2 -3 -4 -6 -7 8 -10 11 -12 0
-2 -3 -4 -6 -7 8 -10 -11 12 0
-2 -3 -4 -6 -7 8 -10 -11 -12 0
-2 -3 -4 -6 -7 -8 10 11 12 0
-2 -3 -4 -6 -7 -8 10 11 -12 0
-2 -3 -4 -6 -7 -8 10 -11 12 0
-2 -3 -4 -6 -7 -8 10 -11 -12 0
-2 -3 -4 -6 -7 -8 -10 11 12 0
-2 -3 -4 -6 -7 -8 -10 11 -12 0
-2 -3 -4 -6 -7 -8 -10 -11 12 0
-2 -3 -4 -6 -7 -8 -10 -11 -12 0
3 4 7 -8 11 12 0
3 4 7 -8 11 -12 0
3 4 7 -8 -11 12 0
3 4 -7 8 -11 -12 0
3 4 -7 -8 11 12 0
3 -4 7 8 -11 -12 0
3 -4 7 -8 11 12 0
3 -4 -7 8 11 -12 0
3 -4 -7 8 -11 12 0
3 -4 -7 -8 -11 -12 0
-3 4 7 8 -11 -12 0
-3 4 7 -8 11 12 0
-3 4 -7 8 11 -12 0
-3 4 -7 8 -11 12 0
-3 4 -7 -8 -11 -12 0
-3 -4 7 8 11 -12 0
-3 -4 7 8 -11 12 0
-3 -4 7 -8 -11 -12 0
-3 -4 -7 8 11 12 0
-3 -4 -7 -8 11 -12 0
-3 -4 -7 -8 -11 12 0
-3 -4 -7 -8 -11 -12 0
-4 -8 -12 0
-5 -9 -13 0
5 6 9 -10 -13 -14 0
5 6 -9 10 13 14 0
5 6 -9 10 13 -14 0
5 6 -9 10 -13 14 0
5 6 -9 -10 13 14 0
5 -6 9 10 -13 -14 0
5 -6 9 -10 13 -14 0
5 -6 9 -10 -13 14 0
5 -6 -9 10 13 14 0
5 -6 -9 -10 -13 -14 0
-5 6 9 10 -13 -14 0
-5 6 9 -10 13 -14 0
-5 6 9 -10 -13 14 0
-5 6 -9 10 13 14 0
-5 6 -9 -10 -13 -14 0
-5 -6 9 10 13 -14 0
-5 -6 9 10 -13 14 0
-5 -6 9 -10 13 14 0
-5 -6 -9 10 -13 -14 0
-5 -6 -9 -10 13 -14 0
-5 -6 -9 -10 -13 14 0
-5 -6 -9 -10 -13 -14 0
5 6 7 9 10 11 -13 -14 -15 0
5 6 7 9 10 -11 13 -14 -15 0
5 6 7 9 10 -11 -13 14 -15 0
5 6 7 9 10 -11 -13 -14 15 0
5 6 7 9 -10 11 13 14 15 0
5 6 7 9 -10 11 13 14 -15 0
5 6 7 9 -10 11 13 -14 15 0
5 6 7 9 -10 11 -13 14 15 0
5 6 7 9 -10 -11 13 14 15 0
5 6 7 9 -10 -11 -13 -14 -15 0
5 6 7 -9 10 11 13 -14 -15 0
5 6 7 -9 10 11 -13 14 -15 0
5 6 7 -9 10 11 -13 -14 15 0
5 6 7 -9 10 -11 13 14 -15 0
5 6 7 -9 10 -11 13 -14 15 0
5 6 7 -9 10 -11 -13 14 15 0
5 6 7 -9 -10 11 13 14 15 0
5 6 7 -9 -10 11 -13 -14 -15 0
5 6 7 -9 -10 -11 13 -14 -15 0
5 6 7 -9 -10 -11 -13 14 -15 0
5 6 7 -9 -10 -11 -13 -14 15 0
5 6 7 -9 -10 -11 -13 -14 -15 0
5 6 -7 9 10 11 13 -14 -15 0
5 6 -7 9 10 11 -13 14 -15 0
5 6 -7 9 10 11 -13 -14 15 0
5 6 -7 9 10 -11 13 14 -15 0
5 6 -7 9 10 -11 13 -14 15 0
5 6 -7 9 10 -11 -13 14 15 0
5 6 -7 9 -10 11 13 14 15 0
5 6 -7 9 -10 11 -13 -14 -15 0
5 6 -7 9 -10 -11 13 -14 -15 0
5 6 -7 9 -10 -11 -13 14 -15 0
5 6 -7 9 -10 -11 -13 -14 15 0
5 6 -7 9 -10 -11 -13 -14 -15 0
5 6 -7 -9 10 11 13 14 -15 0
5 6 -7 -9 10 11 13 -14 15 0
5 6 -7 -9 10 11 -13 14 15 0
5 6 -7 -9 10 -11 13 14 15 0
5 6 -7 -9 -10 11 13 -14 -15 0
5 6 -7 -9 -10 11 -13 14 -15 0
5 6 -7 -9 -10 11 -13 -14 15 0
5 6 -7 -9 -10 11 -13 -14 -15 0
5 6 -7 -9 -10 -11 13 14 -15 0
5 6 -7 -9 -10 -11 13 -14 15 0
5 6 -7 -9 -10 -11 13 -14 -15 0
5 6 -7 -9 -10 -11 -13 14 15 0
5 6 -7 -9 -10 -11 -13 14 -15 0
5 6 -7 -9 -10 -11 -13 -14 15 0
5 6 -7 -9 -10 -11 -13 -14 -15 0
5 -6 7 9 10 11 13 -14 -15 0
5 -6 7 9 10 11 -13 14 -15 0
5 -6 7 9 10 11 -13 -14 15 0
5 -6 7 9 10 -11 13 14 -15 0
5 -6 7 9 10 -11 13 -14 15 0
5 -6 7 9 10 -11 -13 14 15 0
5 -6 7 9 -10 11 13 14 15 0
5 -6 7 9 -10 11 -13 -14 -15 0
5 -6 7 9 -10 -11 13 -14 -15 0
5 -6 7 9 -10 -11 -13 14 -15 0
5 -6 7 9 -10 -11 -13 -14 15 0
5 -6 7 9 -10 -11 -13 -14 -15 0
5 -6 7 -9 10 11 13 14 -15 0
5 -6 7 -9 10 11 13 -14 15 0
5 -6 7 -9 10 11 -13 14 15 0
5 -6 7 -9 10 -11 13 14 15 0
5 -6 7 -9 -10 11 13 -14 -15 0
5 -6 7 -9 -10 11 -13 14 -15 0
5 -6 7 -9 -10 11 -13 -14 15 0
5 -6 7 -9 -10 11 -13 -14 -15 0
5 -6 7 -9 -10 -11 13 14 -15 0
5 -6 7 -9 -10 -11 13 -14 15 0
5 -6 7 -9 -10 -11 13 -14 -15 0
5 -6 7 -9 -10 -11 -13 14 15 0
5 -6 7 -9 -10 -11 -13 14 -15 0
5 -6 7 -9 -10 -11 -13 -14 15 0
5 -6 7 -9 -10 -11 -13 -14 -15 0
5 -6 -7 9 10 11 13 14 -15 0
5 -6 -7 9 10 11 13 -14 15 0
5 -6 -7 9 10 11 -13 14 15 0
5 -6 -7 9 10 -11 13 14 15 0
5 -6 -7 9 -10 11 13 -14 -15 0
5 -6 -7 9 -10 11 -13 14 -15 0
5 -6 -7 9 -10 11 -13 -14 15 0
5 -6 -7 9 -10 11 -13 -14 -15 0
5 -6 -7 9 -10 -11 13 14 -15 0
5 -6 -7 9 -10 -11 13 -14 15 0
5 -6 -7 9 -10 -11 13 -14 -15 0
5 -6 -7 9 -10 -11 -13 14 15 0
5 -6 -7 9 -10 -11 -13 14 -15 0
5 -6 -7 9 -10 -11 -13 -14 15 0
5 -6 -7 9 -10 -11 -13 -14 -15 0
5 -6 -7 -9 10 11 13 14 15 0
5 -6 -7 -9 -10 11 13 14 -15 0
5 -6 -7 -9 -10 11 13 -14 15 0
5 -6 -7 -9 -10 11 13 -14 -15 0
5 -6 -7 -9 -10 11 -13 14 15 0
5 -6 -7 -9 -10 11 -13 14 -15 0
5 -6 -7 -9 -10 11 -13 -14 15 0
5 -6 -7 -9 -10 11 -13 -14 -15 0
5 -6 -7 -9 -10 -11 13 14 15 0
5 -6 -7 -9 -10 -11 13 14 -15 0
5 -6 -7 -9 -10 -11 13 -14 15 0
5 -6 -7 -9 -10 -11 13 -14 -15 0
5 -6 -7 -9 -10 -11 -13 14 15 0
5 -6 -7 -9 -10 -11 -13 14 -15 0
5 -6 -7 -9 -10 -11 -13 -14 15 0
5 -6 -7 -9 -10 -11 -13 -14 -15 0
-5 6 7 9 10 11 13 -14 -15 0
-5 6 7 9 10 11 -13 14 -15 0
-5 6 7 9 10 11 -13 -14 15 0
-5 6 7 9 10 -11 13 14 -15 0
-5 6 7 9 10 -11 13 -14 15 0
-5 6 7 9 10 -11 -13 14 15 0
-5 6 7 9 -10 11 13 14 15 0
-5 6 7 9 -10 11 -13 -14 -15 0
-5 6 7 9 -10 -11 13 -14 -15 0
-5 6 7 9 -10 -11 -13 14 -15 0
-5 6 7 9 -10 -11 -13 -14 15 0
-5 6 7 9 -10 -11 -13 -14 -15 0
-5 6 7 -9 10 11 13 14 -15 0
-5 6 7 -9 10 11 13 -14 15 0
-5 6 7 -9 10 11 -13 14 15 0
-5 6 7 -9 10 -11 13 14 15 0
-5 6 7 -9 -10 11 13 -14 -15 0
-5 6 7 -9 -10 11 -13 14 -15 0
-5 6 7 -9 -10 11 -13 -14 15 0
-5 6 7 -9 -10 11 -13 -14 -15 0
-5 6 7 -9 -10 -11 13 14 -15 0
-5 6 7 -9 -10 -11 13 -14 15 0
-5 6 7 -9 -10 -11 13 -14 -15 0
-5 6 7 -9 -10 -11 -13 14 15 0
-5 6 7 -9 -10 -11 -13 14 -15 0
-5 6 7 -9 -10 -11 -13 -14 15 0
-5 6 7 -9 -10 -11 -13 -14 -15 0
-5 6 -7 9 10 11 13 14 -15 0
-5 6 -7 9 10 11 13 -14 15 0
-5 6 -7 9 10 11 -13 14 15 0
-5 6 -7 9 10 -11 13 14 15 0
-5 6 -7 9 -10 11 13 -14 -15 0
-5 6 -7 9 -10 11 -13 14 -15 0
-5 6 -7 9 -10 11 -13 -14 15 0
-5 6 -7 9 -10 11 -13 -14 -15 0
-5 6 -7 9 -10 -11 13 14 -15 0
-5 6 -7 9 -10 -11 13 -14 15 0
-5 6 -7 9 -10 -11 13 -14 -15 0
-5 6 -7 9 -10 -11 -13 14 15 0
-5 6 -7 9 -10 -11 -13 14 -15 0
-5 6 -7 9 -10 -11 -13 -14 15 0
-5 6 -7 9 -10 -11 -13 -14 -15 0
-5 6 -7 -9 10 11 13 14 15 0
-5 6 -7 -9 -10 11 13 14 -15 0
-5 6 -7 -9 -10 11 13 -14 15 0
-5 6 -7 -9 -10 11 13 -14 -15 0
-5 6 -7 -9 -10 11 -13 14 15 0
-5 6 -7 -9 -10 11 -13 14 -15 0
-5 6 -7 -9 -10 11 -13 -14 15 0
-5 6 -7 -9 -10 11 -13 -14 -15 0
-5 6 -7 -9 -10 -11 13 14 15 0
-5 6 -7 -9 -10 -11 13 14 -15 0
-5 6 -7 -9 -10 -11 13 -14 15 0
-5 6 -7 -9 -10 -11 13 -14 -15 0
-5 6 -7 -9 -10 -11 -13 14 15 0
-5 6 -7 -9 -10 -11 -13 14 -15 0
-5 6 -7 -9 -10 -11 -13 -14 15 0
-5 6 -7 -9 -10 -11 -13 -14 -15 0
-5 -6 7 9 10 11 13 14 -15 0
-5 -6 7 9 10 11 13 -14 15 0
-5 -6 7 9 10 11 -13 14 15 0
-5 -6 7 9 10 -11 13 14 15 0
-5 -6 7 9 -10 11 13 -14 -15 0
-5 -6 7 9 -10 11 -13 14 -15 0
-5 -6 7 9 -10 11 -13 -14 15 0
-5 -6 7 9 -10 11 -13 -14 -15 0
-5 -6 7 9 -10 -11 13 14 -15 0
-5 -6 7 9 -10 -11 13 -14 15 0
-5 -6 7 9 -10 -11 13 -14 -15 0
-5 -6 7 9 -10 -11 -13 14 15 0
-5 -6 7 9 -10 -11 -13 14 -15 0
-5 -6 7 9 -10 -11 -13 -14 15 0
-5 -6 7 9 -10 -11 -13 -14 -15 0
-5 -6 7 -9 10 11 13 14 15 0
-5 -6 7 -9 -10 11 13 14 -15 0
-5 -6 7 -9 -10 11 13 -14 15 0
-5 -6 7 -9 -10 11 13 -14 -15 0
-5 -6 7 -9 -10 11 -13 14 15 0
-5 -6 7 -9 -10 11 -13 14 -15 0
-5 -6 7 -9 -10 11 -13 -14 15 0
-5 -6 7 -9 -10 11 -13 -14 -15 0
-5 -6 7 -9 -10 -11 13 14 15 0
-5 -6 7 -9 -10 -11 13 14 -15 0
-5 -6 7 -9 -10 -11 13 -14 15 0
-5 -6 7 -9 -10 -11 13 -14 -15 0
-5 -6 7 -9 -10 -11 -13 14 15 0
-5 -6 7 -9 -10 -11 -13 14 -15 0
-5 -6 7 -9 -10 -11 -13 -14 15 0
-5 -6 7 -9 -10 -11 -13 -14 -15 0
-5 -6 -7 9 10 11 13 14 15 0
-5 -6 -7 9 -10 11 13 14 -15 0
-5 -6 -7 9 -10 11 13 -14 15 0
-5 -6 -7 9 -10 11 13 -14 -15 0
-5 -6 -7 9 -10 11 -13 14 15 0
-5 -6 -7 9 -10 11 -13 14 -15 0
-5 -6 -7 9 -10 11 -13 -14 15 0
-5 -6 -7 9 -10 11 -13 -14 -15 0
-5 -6 -7 9 -10 -11 13 14 15 0
-5 -6 -7 9 -10 -11 13 14 -15 0
-5 -6 -7 9 -10 -11 13 -14 15 0
-5 -6 -7 9 -10 -11 13 -14 -15 0
-5 -6 -7 9 -10 -11 -13 14 15 0
-5 -6 -7 9 -10 -11 -13 14 -15 0
-5 -6 -7 9 -10 -11 -13 -14 15 0
-5 -6 -7 9 -10 -11 -13 -14 -15 0
-5 -6 -7 -9 -10 11 13 14 15 0
-5 -6 -7 -9 -10 11 13 14 -15 0
-5 -6 -7 -9 -10 11 13 -14 15 0
-5 -6 -7 -9 -10 11 13 -14 -15 0
-5 -6 -7 -9 -10 11 -13 14 15 0
-5 -6 -7 -9 -10 11 -13 14 -15 0
-5 -6 -7 -9 -10 11 -13 -14 15 0
-5 -6 -7 -9 -10 11 -13 -14 -15 0
-5 -6 -7 -9 -10 -11 13 14 15 0
-5 -6 -7 -9 -10 -11 13 14 -15 0
-5 -6 -7 -9 -10 -11 13 -14 15 0
-5 -6 -7 -9 -10 -11 13 -14 -15 0
-5 -6 -7 -9 -10 -11 -13 14 15 0
-5 -6 -7 -9 -10 -11 -13 14 -15 0
-5 -6 -7 -9 -10 -11 -13 -14 15 0
-5 -6 -7 -9 -10 -11 -13 -14 -15 0
6 7 8 10 11 12 -14 -15 -16 0
6 7 8 10 11 -12 14 -15 -16 0
6 7 8 10 11 -12 -14 15 -16 0
6 7 8 10 11 -12 -14 -15 16 0
6 7 8 10 -11 12 14 15 16 0
6 7 8 10 -11 12 14 15 -16 0
6 7 8 10 -11 12 14 -15 16 0
6 7 8 10 -11 12 -14 15 16 0
6 7 8 10 -11 -12 14 15 16 0
6 7 8 10 -11 -12 -14 -15 -16 0
6 7 8 -10 11 12 14 -15 -16 0
6 7 8 -10 11 12 -14 15 -16 0
6 7 8 -10 11 12 -14 -15 16 0
6 7 8 -10 11 -12 14 15 -16 0
6 7 8 -10 11 -12 14 -15 16 0
6 7 8 -10 11 -12 -14 15 16 0
6 7 8 -10 -11 12 14 15 16 0
6 7 8 -10 -11 12 -14 -15 -16 0
6 7 8 -10 -11 -12 14 -15 -16 0
6 7 8 -10 -11 -12 -14 15 -16 0
6 7 8 -10 -11 -12 -14 -15 16 0
6 7 8 -10 -11 -12 -14 -15 -16 0
6 7 -8 10 11 12 14 -15 -16 0
6 7 -8 10 11 12 -14 15 -16 0
6 7 -8 10 11 12 -14 -15 16 0
6 7 -8 10 11 -12 14 15 -16 0
6 7 -8 10 11 -12 14 -15 16 0
6 7 -8 10 11 -12 -14 15 16 0
6 7 -8 10 -11 12 14 15 16 0
6 7 -8 10 -11 12 -14 -15 -16 0
6 7 -8 10 -11 -12 14 -15 -16 0
6 7 -8 10 -11 -12 -14 15 -16 0
6 7 -8 10 -11 -12 -14 -15 16 0
6 7 -8 10 -11 -12 -14 -15 -16 0
6 7 -8 -10 11 12 14 15 -16 0
6 7 -8 -10 11 12 14 -15 16 0
6 7 -8 -10 11 12 -14 15 16 0
6 7 -8 -10 11 -12 14 15 16 0
6 7 -8 -10 -11 12 14 -15 -16 0
6 7 -8 -10 -11 12 -14 15 -16 0
6 7 -8 -10 -11 12 -14 -15 16 0
6 7 -8 -10 -11 12 -14 -15 -16 0
6 7 -8 -10 -11 -12 14 15 -16 0
6 7 -8 -10 -11 -12 14 -15 16 0
6 7 -8 -10 -11 -12 14 -15 -16 0
6 7 -8 -10 -11 -12 -14 15 16 0
6 7 -8 -10 -11 -12 -14 15 -16 0
6 7 -8 -10 -11 -12 -14 -15 16 0
6 7 -8 -10 -11 -12 -14 -15 -16 0
6 -7 8 10 11 12 14 -15 -16 0
6 -7 8 10 11 12 -14 15 -16 0
6 -7 8 10 11 12 -14 -15 16 0
6 -7 8 10 11 -12 14 15 -16 0
6 -7 8 10 11 -12 14 -15 16 0
6 -7 8 10 11 -12 -14 15 16 0
6 -7 8 10 -11 12 14 15 16 0
6 -7 8 10 -11 12 -14 -15 -16 0
6 -7 8 10 -11 -12 14 -15 -16 0
6 -7 8 10 -11 -12 -14 15 -16 0
6 -7 8 10 -11 -12 -14 -15 16 0
6 -7 8 10 -11 -12 -14 -15 -16 0
6 -7 8 -10 11 12 14 15 -16 0
6 -7 8 -10 11 12 14 -15 16 0
6 -7 8 -10 11 12 -14 15 16 0
6 -7 8 -10 11 -12 14 15 16 0
6 -7 8 -10 -11 12 14 -15 -16 0
6 -7 8 -10 -11 12 -14 15 -16 0
6 -7 8 -10 -11 12 -14 -15 16 0
6 -7 8 -10 -11 12 -14 -15 -16 0
6 -7 8 -10 -11 -12 14 15 -16 0
6 -7 8 -10 -11 -12 14 -15 16 0
6 -7 8 -10 -11 -12 14 -15 -16 0
6 -7 8 -10 -11 -12 -14 15 16 0
6 -7 8 -10 -11 -12 -14 15 -16 0
6 -7 8 -10 -11 -12 -14 -15 16 0
6 -7 8 -10 -11 -12 -14 -15 -16 0
6 -7 -8 10 11 12 14 15 -16 0
6 -7 -8 10 11 12 14 -15 16 0
6 -7 -8 10 11 12 -14 15 16 0
6 -7 -8 10 11 -12 14 15 16 0
6 -7 -8 10 -11 12 14 -15 -16 0
6 -7 -8 10 -11 12 -14 15 -16 0
6 -7 -8 10 -11 12 -14 -15 16 0
6 -7 -8 10 -11 12 -14 -15 -16 0
6 -7 -8 10 -11 -12 14 15 -16 0
6 -7 -8 10 -11 -12 14 -15 16 0
6 -7 -8 10 -11 -12 14 -15 -16 0
6 -7 -8 10 -11 -12 -14 15 16 0
6 -7 -8 10 -11 -12 -14 15 -16 0
6 -7 -8 10 -11 -12 -14 -15 16 0
6 -7 -8 10 -11 -12 -14 -15 -16 0
6 -7 -8 -10 11 12 14 15 16 0
6 -7 -8 -10 -11 12 14 15 -16 0
6 -7 -8 -10 -11 12 14 -15 16 0
6 -7 -8 -10 -11 12 14 -15 -16 0
6 -7 -8 -10 -11 12 -14 15 16 0
6 -7 -8 -10 -11 12 -14 15 -16 0
6 -7 -8 -10 -11 12 -14 -15 16 0
6 -7 -8 -10 -11 12 -14 -15 -16 0
6 -7 -8 -10 -11 -12 14 15 16 0
6 -7 -8 -10 -11 -12 14 15 -16 0
6 -7 -8 -10 -11 -12 14 -15 16 0
6 -7 -8 -10 -11 -12 14 -15 -16 0
6 -7 -8 -10 -11 -12 -14 15 16 0
6 -7 -8 -10 -11 -12 -14 15 -16 0
6 -7 -8 -10 -11 -12 -14 -15 16 0
6 -7 -8 -10 -11 -12 -14 -15 -16 0
-6 7 8 10 11 12 14 -15 -16 0
-6 7 8 10 11 12 -14 15 -16 0
-6 7 8 10 11 12 -14 -15 16 0
-6 7 8 10 11 -12 14 15 -16 0
-6 7 8 10 11 -12 14 -15 16 0
-6 7 8 10 11 -12 -14 15 16 0
-6 7 8 10 -11 12 14 15 16 0
-6 7 8 10 -11 12 -14 -15 -16 0
-6 7 8 10 -11 -12 14 -15 -16 0
-6 7 8 10 -11 -12 -14 15 -16 0
-6 7 8 10 -11 -12 -14 -15 16 0
-6 7 8 10 -11 -12 -14 -15 -16 0
-6 7 8 -10 11 12 14 15 -16 0
-6 7 8 -10 11 12 14 -15 16 0
-6 7 8 -10 11 12 -14 15 16 0
-6 7 8 -10 11 -12 14 15 16 0
-6 7 8 -10 -11 12 14 -15 -16 0
-6 7 8 -10 -11 12 -14 15 -16 0
-6 7 8 -10 -11 12 -14 -15 16 0
-6 7 8 -10 -11 12 -14 -15 -16 0
-6 7 8 -10 -11 -12 14 15 -16 0
-6 7 8 -10 -11 -12 14 -15 16 0
-6 7 8 -10 -11 -12 14 -15 -16 0
-6 7 8 -10 -11 -12 -14 15 16 0
-6 7 8 -10 -11 -12 -14 15 -16 0
-6 7 8 -10 -11 -12 -14 -15 16 0
-6 7 8 -10 -11 -12 -14 -15 -16 0
-6 7 -8 10 11 12 14 15 -16 0
-6 7 -8 10 11 12 14 -15 16 0
-6 7 -8 10 11 12 -14 15 16 0
-6 7 -8 10 11 -12 14 15 16 0
-6 7 -8 10 -11 12 14 -15 -16 0
-6 7 -8 10 -11 12 -14 15 -16 0
-6 7 -8 10 -11 12 -14 -15 16 0
-6 7 -8 10 -11 12 -14 -15 -16 0
-6 7 -8 10 -11 -12 14 15 -16 0
-6 7 -8 10 -11 -12 14 -15 16 0
-6 7 -8 10 -11 -12 14 -15 -16 0
-6 7 -8 10 -11 -12 -14 15 16 0
-6 7 -8 10 -11 -12 -14 15 -16 0
-6 7 -8 10 -11 -12 -14 -15 16 0
-6 7 -8 10 -11 -12 -14 -15 -16 0
-6 7 -8 -10 11 12 14 15 16 0
-6 7 -8 -10 -11 12 14 15 -16 0
-6 7 -8 -10 -11 12 14 -15 16 0
-6 7 -8 -10 -11 12 14 -15 -16 0
-6 7 -8 -10 -11 12 -14 15 16 0
-6 7 -8 -10 -11 12 -14 15 -16 0
-6 7 -8 -10 -11 12 -14 -15 16 0
-6 7 -8 -10 -11 12 -14 -15 -16 0
-6 7 -8 -10 -11 -12 14 15 16 0
-6 7 -8 -10 -11 -12 14 15 -16 0
-6 7 -8 -10 -11 -12 14 -15 16 0
-6 7 -8 -10 -11 -12 14 -15 -16 0
-6 7 -8 -10 -11 -12 -14 15 16 0
-6 7 -8 -10 -11 -12 -14 15 -16 0
-6 7 -8 -10 -11 -12 -14 -15 16 0
-6 7 -8 -10 -11 -12 -14 -15 -16 0
-6 -7 8 10 11 12 14 15 -16 0
-6 -7 8 10 11 12 14 -15 16 0
-6 -7 8 10 11 12 -14 15 16 0
-6 -7 8 10 11 -12 14 15 16 0
-6 -7 8 10 -11 12 14 -15 -16 0
-6 -7 8 10 -11 12 -14 15 -16 0
-6 -7 8 10 -11 12 -14 -15 16 0
-6 -7 8 10 -11 12 -14 -15 -16 0
-6 -7 8 10 -11 -12 14 15 -16 0
-6 -7 8 10 -11 -12 14 -15 16 0
-6 -7 8 10 -11 -12 14 -15 -16 0
-6 -7 8 10 -11 -12 -14 15 16 0
-6 -7 8 10 -11 -12 -14 15 -16 0
-6 -7 8 10 -11 -12 -14 -15 16 0
-6 -7 8 10 -11 -12 -14 -15 -16 0
-6 -7 8 -10 11 12 14 15 16 0
-6 -7 8 -10 -11 12 14 15 -16 0
-6 -7 8 -10 -11 12 14 -15 16 0
-6 -7 8 -10 -11 12 14 -15 -16 0
-6 -7 8 -10 -11 12 -14 15 16 0
-6 -7 8 -10 -11 12 -14 15 -16 0
-6 -7 8 -10 -11 12 -14 -15 16 0
-6 -7 8 -10 -11 12 -14 -15 -16 0
-6 -7 8 -10 -11 -12 14 15 16 0
-6 -7 8 -10 -11 -12 14 15 -16 0
-6 -7 8 -10 -11 -12 14 -15 16 0
-6 -7 8 -10 -11 -12 14 -15 -16 0
-6 -7 8 -10 -11 -12 -14 15 16 0
-6 -7 8 -10 -11 -12 -14 15 -16 0
-6 -7 8 -10 -11 -12 -14 -15 16 0
-6 -7 8 -10 -11 -12 -14 -15 -16 0
-6 -7 -8 10 11 12 14 15 16 0
-6 -7 -8 10 -11 12 14 15 -16 0
-6 -7 -8 10 -11 12 14 -15 16 0
-6 -7 -8 10 -11 12 14 -15 -16 0
-6 -7 -8 10 -11 12 -14 15 16 0
-6 -7 -8 10 -11 12 -14 15 -16 0
-6 -7 -8 10 -11 12 -14 -15 16 0
-6 -7 -8 10 -11 12 -14 -15 -16 0
-6 -7 -8 10 -11 -12 14 15 16 0
-6 -7 -8 10 -11 -12 14 15 -16 0
-6 -7 -8 10 -11 -12 14 -15 16 0
-6 -7 -8 10 -11 -12 14 -15 -16 0
-6 -7 -8 10 -11 -12 -14 15 16 0
-6 -7 -8 10 -11 -12 -14 15 -16 0
-6 -7 -8 10 -11 -12 -14 -15 16 0
-6 -7 -8 10 -11 -12 -14 -15 -16 0
-6 -7 -8 -10 -11 12 14 15 16 0
-6 -7 -8 -10 -11 12 14 15 -16 0
-6 -7 -8 -10 -11 12 14 -15 16 0
-6 -7 -8 -10 -11 12 14 -15 -16 0
-6 -7 -8 -10 -11 12 -14 15 16 0
-6 -7 -8 -10 -11 12 -14 15 -16 0
-6 -7 -8 -10 -11 12 -14 -15 16 0
-6 -7 -8 -10 -11 12 -14 -15 -16 0
-6 -7 -8 -10 -11 -12 14 15 16 0
-6 -7 -8 -10 -11 -12 14 15 -16 0
-6 -7 -8 -10 -11 -12 14 -15 16 0
-6 -7 -8 -10 -11 -12 14 -15 -16 0
-6 -7 -8 -10 -11 -12 -14 15 16 0
-6 -7 -8 -10 -11 -12 -14 15 -16 0
-6 -7 -8 -10 -11 -12 -14 -15 16 0
-6 -7 -8 -10 -11 -12 -14 -15 -16 0
7 8 11 -12 15 16 0
7 8 11 -12 15 -16 0
7 8 11 -12 -15 16 0
7 8 -11 12 -15 -16 0
7 8 -11 -12 15 16 0
7 -8 11 12 -15 -16 0
7 -8 11 -12 15 16 0
7 -8 -11 12 15 -16 0
7 -8 -11 12 -15 16 0
7 -8 -11 -12 -15 -16 0
-7 8 11 12 -15 -16 0
-7 8 11 -12 15 16 0
-7 8 -11 12 15 -16 0
-7 8 -11 12 -15 16 0
-7 8 -11 -12 -15 -16 0
-7 -8 11 12 15 -16 0
-7 -8 11 12 -15 16 0
-7 -8 11 -12 -15 -16 0
-7 -8 -11 12 15 16 0
-7 -8 -11 -12 15 -16 0
-7 -8 -11 -12 -15 16 0
-7 -8 -11 -12 -15 -16 0
-8 -12 -16 0
-9 -13 -17 0
9 10 13 -14 -17 -18 0
9 10 -13 14 17 18 0
9 10 -13 14 17 -18 0
9 10 -13 14 -17 18 0
9 10 -13 -14 17 18 0
9 -10 13 14 -17 -18 0
9 -10 13 -14 17 -18 0
9 -10 13 -14 -17 18 0
9 -10 -13 14 17 18 0
9 -10 -13 -14 -17 -18 0
-9 10 13 14 -17 -18 0
-9 10 13 -14 17 -18 0
-9 10 13 -14 -17 18 0
-9 10 -13 14 17 18 0
-9 10 -13 -14 -17 -18 0
-9 -10 13 14 17 -18 0
-9 -10 13 14 -17 18 0
-9 -10 13 -14 17 18 0
-9 -10 -13 14 -17 -18 0
-9 -10 -13 -14 17 -18 0
-9 -10 -13 -14 -17 18 0
-9 -10 -13 -14 -17 -18 0
9 10 11 13 14 15 -17 -18 -19 0
9 10 11 13 14 -15 17 -18 -19 0
9 10 11 13 14 -15 -17 18 -19 0
9 10 11 13 14 -15 -17 -18 19 0
9 10 11 13 -14 15 17 18 19 0
9 10 11 13 -14 15 17 18 -19 0
9 10 11 13 -14 15 17 -18 19 0
9 10 11 13 -14 15 -17 18 19 0
9 10 11 13 -14 -15 17 18 19 0
9 10 11 13 -14 -15 -17 -18 -19 0
9 10 11 -13 14 15 17 -18 -19 0
9 10 11 -13 14 15 -17 18 -19 0
9 10 11 -13 14 15 -17 -18 19 0
9 10 11 -13 14 -15 17 18 -19 0
9 10 11 -13 14 -15 17 -18 19 0
9 10 11 -13 14 -15 -17 18 19 0
9 10 11 -13 -14 15 17 18 19 0
9 10 11 -13 -14 15 -17 -18 -19 0
9 10 11 -13 -14 -15 17 -18 -19 0
9 10 11 -13 -14 -15 -17 18 -19 0
9 10 11 -13 -14 -15 -17 -18 19 0
9 10 11 -13 -14 -15 -17 -18 -19 0
9 10 -11 13 14 15 17 -18 -19 0
9 10 -11 13 14 15 -17 18 -19 0
9 10 -11 13 14 15 -17 -18 19 0
9 10 -11 13 14 -15 17 18 -19 0
9 10 -11 13 14 -15 17 -18 19 0
9 10 -11 13 14 -15 -17 18 19 0
9 10 -11 13 -14 15 17 18 19 0
9 10 -11 13 -14 15 -17 -18 -19 0
9 10 -11 13 -14 -15 17 -18 -19 0
9 10 -11 13 -14 -15 -17 18 -19 0
9 10 -11 13 -14 -15 -17 -18 19 0
9 10 -11 13 -14 -15 -17 -18 -19 0
9 10 -11 -13 14 15 17 18 -19 0
9 10 -11 -13 14 15 17 -18 19 0
9 10 -11 -13 14 15 -17 18 19 0
9 10 -11 -13 14 -15 17 18 19 0
9 10 -11 -13 -14 15 17 -18 -19 0
9 10 -11 -13 -14 15 -17 18 -19 0
9 10 -11 -13 -14 15 -17 -18 19 0
9 10 -11 -13 -14 15 -17 -18 -19 0
9 10 -11 -13 -14 -15 17 18 -19 0
9 10 -11 -13 -14 -15 17 -18 19 0
9 10 -11 -13 -14 -15 17 -18 -19 0
9 10 -11 -13 -14 -15 -17 18 19 0
9 10 -11 -13 -14 -15 -17 18 -19 0
9 10 -11 -13 -14 -15 -17 -18 19 0
9 10 -11 -13 -14 -15 -17 -18 -19 0
9 -10 11 13 14 15 17 -18 -19 0
9 -10 11 13 14 15 -17 18 -19 0
9 -10 11 13 14 15 -17 -18 19 0
9 -10 11 13 14 -15 17 18 -19 0
9 -10 11 13 14 -15 17 -18 19 0
9 -10 11 13 14 -15 -17 18 19 0
9 -10 11 13 -14 15 17 18 19 0
9 -10 11 13 -14 15 -17 -18 -19 0
9 -10 11 13 -14 -15 17 -18 -19 0
9 -10 11 13 -14 -15 -17 18 -19 0
9 -10 11 13 -14 -15 -17 -18 19 0
9 -10 11 13 -14 -15 -17 -18 -19 0
9 -10 11 -13 14 15 17 18 -19 0
9 -10 11 -13 14 15 17 -18 19 0
9 -10 11 -13 14 15 -17 18 19 0
9 -10 11 -13 14 -15 17 18 19 0
9 -10 11 -13 -14 15 17 -18 -19 0
9 -10 11 -13 -14 15 -17 18 -19 0
9 -10 11 -13 -14 15 -17 -18 19 0
9 -10 11 -13 -14 15 -17 -18 -19 0
9 -10 11 -13 -14 -15 17 18 -19 0
9 -10 11 -13 -14 -15 17 -18 19 0
9 -10 11 -13 -14 -15 17 -18 -19 0
9 -10 11 -13 -14 -15 -17 18 19 0
9 -10 11 -13 -14 -15 -17 18 -19 0
9 -10 11 -13 -14 -15 -17 -18 19 0
9 -10 11 -13 -14 -15 -17 -18 -19 0
9 -10 -11 13 14 15 17 18 -19 0
9 -10 -11 13 14 15 17 -18 19 0
9 -10 -11 13 14 15 -17 18 19 0
9 -10 -11 13 14 -15 17 18 19 0
9 -10 -11 13 -14 15 17 -18 -19 0
9 -10 -11 13 -14 15 -17 18 -19 0
9 -10 -11 13 -14 15 -17 -18 19 0
9 -10 -11 13 -14 15 -17 -18 -19 0
9 -10 -11 13 -14 -15 17 18 -19 0
9 -10 -11 13 -14 -15 17 -18 19 0
9 -10 -11 13 -14 -15 17 -18 -19 0
9 -10 -11 13 -14 -15 -17 18 19 0
9 -10 -11 13 -14 -15 -17 18 -19 0
9 -10 -11 13 -14 -15 -17 -18 19 0
9 -10 -11 13 -14 -15 -17 -18 -19 0
9 -10 -11 -13 14 15 17 18 19 0
9 -10 -11 -13 -14 15 17 18 -19 0
9 -10 -11 -13 -14 15 17 -18 19 0
9 -10 -11 -13 -14 15 17 -18 -19 0
9 -10 -11 -13 -14 15 -17 18 19 0
9 -10 -11 -13 -14 15 -17 18 -19 0
9 -10 -11 -13 -14 15 -17 -18 19 0
9 -10 -11 -13 -14 15 -17 -18 -19 0
9 -10 -11 -13 -14 -15 17 18 19 0
9 -10 -11 -13 -14 -15 17 18 -19 0
9 -10 -11 -13 -14 -15 17 -18 19 0
9 -10 -11 -13 -14 -15 17 -18 -19 0
9 -10 -11 -13 -14 -15 -17 18 19 0
9 -10 -11 -13 -14 -15 -17 18 -19 0
9 -10 -11 -13 -14 -15 -17 -18 19 0
9 -10 -11 -13 -14 -15 -17 -18 -19 0
-9 10 11 13 14 15 17 -18 -19 0
-9 10 11 13 14 15 -17 18 -19 0
-9 10 11 13 14 15 -17 -18 19 0
-9 10 11 13 14 -15 17 18 -19 0
-9 10 11 13 14 -15 17 -18 19 0
-9 10 11 13 14 -15 -17 18 19 0
-9 10 11 13 -14 15 17 18 19 0
-9 10 11 13 -14 15 -17 -18 -19 0
-9 10 11 13 -14 -15 17 -18 -19 0
-9 10 11 13 -14 -15 -17 18 -19 0
-9 10 11 13 -14 -15 -17 -18 19 0
-9 10 11 13 -14 -15 -17 -18 -19 0
-9 10 11 -13 14 15 17 18 -19 0
-9 10 11 -13 14 15 17 -18 19 0
-9 10 11 -13 14 15 -17 18 19 0
-9 10 11 -13 14 -15 17 18 19 0
-9 10 11 -13 -14 15 17 -18 -19 0
-9 10 11 -13 -14 15 -17 18 -19 0
-9 10 11 -13 -14 15 -17 -18 19 0
-9 10 11 -13 -14 15 -17 -18 -19 0
-9 10 11 -13 -14 -15 17 18 -19 0
-9 10 11 -13 -14 -15 17 -18 19 0
-9 10 11 -13 -14 -15 17 -18 -19 0
-9 10 11 -13 -14 -15 -17 18 19 0
-9 10 11 -13 -14 -15 -17 18 -19 0
-9 10 11 -13 -14 -15 -17 -18 19 0
-9 10 11 -13 -14 -15 -17 -18 -19 0
-9 10 -11 13 14 15 17 18 -19 0
-9 10 -11 13 14 15 17 -18 19 0
-9 10 -11 13 14 15 -17 18 19 0
-9 10 -11 13 14 -15 17 18 19 0
-9 10 -11 13 -14 15 17 -18 -19 0
-9 10 -11 13 -14 15 -17 18 -19 0
-9 10 -11 13 -14 15 -17 -18 19 0
-9 10 -11 13 -14 15 -17 -18 -19 0
-9 10 -11 13 -14 -15 17 18 -19 0
-9 10 -11 13 -14 -15 17 -18 19 0
-9 10 -11 13 -14 -15 17 -18 -19 0
-9 10 -11 13 -14 -15 -17 18 19 0
-9 10 -11 13 -14 -15 -17 18 -19 0
-9 10 -11 13 -14 -15 -17 -18 19 0
-9 10 -11 13 -14 -15 -17 -18 -19 0
-9 10 -11 -13 14 15 17 18 19 0
-9 10 -11 -13 -14 15 17 18 -19 0
-9 10 -11 -13 -14 15 17 -18 19 0
-9 10 -11 -13 -14 15 17 -18 -19 0
-9 10 -11 -13 -14 15 -17 18 19 0
-9 10 -11 -13 -14 15 -17 18 -19 0
-9 10 -11 -13 -14 15 -17 -18 19 0
-9 10 -11 -13 -14 15 -17 -18 -19 0
-9 10 -11 -13 -14 -15 17 18 19 0
-9 10 -11 -13 -14 -15 17 18 -19 0
-9 10 -11 -13 -14 -15 17 -18 19 0
-9 10 -11 -13 -14 -15 17 -18 -19 0
-9 10 -11 -13 -14 -15 -17 18 19 0
-9 10 -11 -13 -14 -15 -17 18 -19 0
-9 10 -11 -13 -14 -15 -17 -18 19 0
-9 10 -11 -13 -14 -15 -17 -18 -19 0
-9 -10 11 13 14 15 17 18 -19 0
-9 -10 11 13 14 15 17 -18 19 0
-9 -10 11 13 14 15 -17 18 19 0
-9 -10 11 13 14 -15 17 18 19 0
-9 -10 11 13 -14 15 17 -18 -19 0
-9 -10 11 13 -14 15 -17 18 -19 0
-9 -10 11 13 -14 15 -17 -18 19 0
-9 -10 11 13 -14 15 -17 -18 -19 0
-9 -10 11 13 -14 -15 17 18 -19 0
-9 -10 11 13 -14 -15 17 -18 19 0
-9 -10 11 13 -14 -15 17 -18 -19 0
-9 -10 11 13 -14 -15 -17 18 19 0
-9 -10 11 13 -14 -15 -17 18 -19 0
-9 -10 11 13 -14 -15 -17 -18 19 0
-9 -10 11 13 -14 -15 -17 -18 -19 0
-9 -10 11 -13 14 15 17 18 19 0
-9 -10 11 -13 -14 15 17 18 -19 0
-9 -10 11 -13 -14 15 17 -18 19 0
-9 -10 11 -13 -14 15 17 -18 -19 0
-9 -10 11 -13 -14 15 -17 18 19 0
-9 -10 11 -13 -14 15 -17 18 -19 0
-9 -10 11 -13 -14 15 -17 -18 19 0
-9 -10 11 -13 -14 15 -17 -18 -19 0
-9 -10 11 -13 -14 -15 17 18 19 0
-9 -10 11 -13 -14 -15 17 18 -19 0
-9 -10 11 -13 -14 -15 17 -18 19 0
-9 -10 11 -13 -14 -15 17 -18 -19 0
-9 -10 11 -13 -14 -15 -17 18 19 0
-9 -10 11 -13 -14 -15 -17 18 -19 0
-9 -10 11 -13 -14 -15 -17 -18 19 0
-9 -10 11 -13 -14 -15 -17 -18 -19 0
-9 -10 -11 13 14 15 17 18 19 0
-9 -10 -11 13 -14 15 17 18 -19 0
-9 -10 -11 13 -14 15 17 -18 19 0
-9 -10 -11 13 -14 15 17 -18 -19 0
-9 -10 -11 13 -14 15 -17 18 19 0
-9 -10 -11 13 -14 15 -17 18 -19 0
-9 -10 -11 13 -14 15 -17 -18 19 0
-9 -10 -11 13 -14 15 -17 -18 -19 0
-9 -10 -11 13 -14 -15 17 18 19 0
-9 -10 -11 13 -14 -15 17 18 -19 0
-9 -10 -11 13 -14 -15 17 -18 19 0
-9 -10 -11 13 -14 -15 17 -18 -19 0
-9 -10 -11 13 -14 -15 -17 18 19 0
-9 -10 -11 13 -14 -15 -17 18 -19 0
-9 -10 -11 13 -14 -15 -17 -18 19 0
-9 -10 -11 13 -14 -15 -17 -18 -19 0
-9 -10 -11 -13 -14 15 17 18 19 0
-9 -10 -11 -13 -14 15 17 18 -19 0
-9 -10 -11 -13 -14 15 17 -18 19 0
-9 -10 -11 -13 -14 15 17 -18 -19 0
-9 -10 -11 -13 -14 15 -17 18 19 0
-9 -10 -11 -13 -14 15 -17 18 -19 0
-9 -10 -11 -13 -14 15 -17 -18 19 0
-9 -10 -11 -13 -14 15 -17 -18 -19 0
-9 -10 -11 -13 -14 -15 17 18 19 0
-9 -10 -11 -13 -14 -15 17 18 -19 0
-9 -10 -11 -13 -14 -15 17 -18 19 0
-9 -10 -11 -13 -14 -15 17 -18 -19 0
-9 -10 -11 -13 -14 -15 -17 18 19 0
-9 -10 -11 -13 -14 -15 -17 18 -19 0
-9 -10 -11 -13 -14 -15 -17 -18 19 0
-9 -10 -11 -13 -14 -15 -17 -18 -19 0
10 11 12 14 15 16 -18 -19 -20 0
10 11 12 14 15 -16 18 -19 -20 0
10 11 12 14 15 -16 -18 19 -20 0
10 11 12 14 15 -16 -18 -19 20 0
10 11 12 14 -15 16 18 19 20 0
10 11 12 14 -15 16 18 19 -20 0
10 11 12 14 -15 16 18 -19 20 0
10 11 12 14 -15 16 -18 19 20 0
10 11 12 14 -15 -16 18 19 20 0
10 11 12 14 -15 -16 -18 -19 -20 0
10 11 12 -14 15 16 18 -19 -20 0
10 11 12 -14 15 16 -18 19 -20 0
10 11 12 -14 15 16 -18 -19 20 0
10 11 12 -14 15 -16 18 19 -20 0
10 11 12 -14 15 -16 18 -19 20 0
10 11 12 -14 15 -16 -18 19 20 0
10 11 12 -14 -15 16 18 19 20 0
10 11 12 -14 -15 16 -18 -19 -20 0
10 11 12 -14 -15 -16 18 -19 -20 0
10 11 12 -14 -15 -16 -18 19 -20 0
10 11 12 -14 -15 -16 -18 -19 20 0
10 11 12 -14 -15 -16 -18 -19 -20 0
10 11 -12 14 15 16 18 -19 -20 0
10 11 -12 14 15 16 -18 19 -20 0
10 11 -12 14 15 16 -18 -19 20 0
10 11 -12 14 15 -16 18 19 -20 0
10 11 -12 14 15 -16 18 -19 20 0
10 11 -12 14 15 -16 -18 19 20 0
10 11 -12 14 -15 16 18 19 20 0
10 11 -12 14 -15 16 -18 -19 -20 0
10 11 -12 14 -15 -16 18 -19 -20 0
10 11 -12 14 -15 -16 -18 19 -20 0
10 11 -12 14 -15 -16 -18 -19 20 0
10 11 -12 14 -15 -16 -18 -19 -20 0
10 11 -12 -14 15 16 18 19 -20 0
10 11 -12 -14 15 16 18 -19 20 0
10 11 -12 -14 15 16 -18 19 20 0
10 11 -12 -14 15 -16 18 19 20 0
10 11 -12 -14 -15 16 18 -19 -20 0
10 11 -12 -14 -15 16 -18 19 -20 0
10 11 -12 -14 -15 16 -18 -19 20 0
10 11 -12 -14 -15 16 -18 -19 -20 0
10 11 -12 -14 -15 -16 18 19 -20 0
10 11 -12 -14 -15 -16 18 -19 20 0
10 11 -12 -14 -15 -16 18 -19 -20 0
10 11 -12 -14 -15 -16 -18 19 20 0
10 11 -12 -14 -15 -16 -18 19 -20 0
10 11 -12 -14 -15 -16 -18 -19 20 0
10 11 -12 -14 -15 -16 -18 -19 -20 0
10 -11 12 14 15 16 18 -19 -20 0
10 -11 12 14 15 16 -18 19 -20 0
10 -11 12 14 15 16 -18 -19 20 0
10 -11 12 14 15 -16 18 19 -20 0
10 -11 12 14 15 -16 18 -19 20 0
10 -11 12 14 15 -16 -18 19 20 0
10 -11 12 14 -15 16 18 19 20 0
10 -11 12 14 -15 16 -18 -19 -20 0
10 -11 12 14 -15 -16 18 -19 -20 0
10 -11 12 14 -15 -16 -18 19 -20 0
10 -11 12 14 -15 -16 -18 -19 20 0
10 -11 12 14 -15 -16 -18 -19 -20 0
10 -11 12 -14 15 16 18 19 -20 0
10 -11 12 -14 15 16 18 -19 20 0
10 -11 12 -14 15 16 -18 19 20 0
10 -11 12 -14 15 -16 18 19 20 0
10 -11 12 -14 -15 16 18 -19 -20 0
10 -11 12 -14 -15 16 -18 19 -20 0
10 -11 12 -14 -15 16 -18 -19 20 0
10 -11 12 -14 -15 16 -18 -19 -20 0
10 -11 12 -14 -15 -16 18 19 -20 0
10 -11 12 -14 -15 -16 18 -19 20 0
10 -11 12 -14 -15 -16 18 -19 -20 0
10 -11 12 -14 -15 -16 -18 19 20 0
10 -11 12 -14 -15 -16 -18 19 -20 0
10 -11 12 -14 -15 -16 -18 -19 20 0
10 -11 12 -14 -15 -16 -18 -19 -20 0
10 -11 -12 14 15 16 18 19 -20 0
10 -11 -12 14 15 16 18 -19 20 0
10 -11 -12 14 15 16 -18 19 20 0
10 -11 -12 14 15 -16 18 19 20 0
10 -11 -12 14 -15 16 18 -19 -20 0
10 -11 -12 14 -15 16 -18 19 -20 0
10 -11 -12 14 -15 16 -18 -19 20 0
10 -11 -12 14 -15 16 -18 -19 -20 0
10 -11 -12 14 -15 -16 18 19 -20 0
10 -11 -12 14 -15 -16 18 -19 20 0
10 -11 -12 14 -15 -16 18 -19 -20 0
10 -11 -12 14 -15 -16 -18 19 20 0
10 -11 -12 14 -15 -16 -18 19 -20 0
10 -11 -12 14 -15 -16 -18 -19 20 0
10 -11 -12 14 -15 -16 -18 -19 -20 0
10 -11 -12 -14 15 16 18 19 20 0
10 -11 -12 -14 -15 16 18 19 -20 0
10 -11 -12 -14 -15 16 18 -19 20 0
10 -11 -12 -14 -15 16 18 -19 -20 0
10 -11 -12 -14 -15 16 -18 19 20 0
10 -11 -12 -14 -15 16 -18 19 -20 0
10 -11 -12 -14 -15 16 -18 -19 20 0
10 -11 -12 -14 -15 16 -18 -19 -20 0
10 -11 -12 -14 -15 -16 18 19 20 0
10 -11 -12 -14 -15 -16 18 19 -20 0
10 -11 -12 -14 -15 -16 18 -19 20 0
10 -11 -12 -14 -15 -16 18 -19 -20 0
10 -11 -12 -14 -15 -16 -18 19 20 0
10 -11 -12 -14 -15 -16 -18 19 -20 0
10 -11 -12 -14 -15 -16 -18 -19 20 0
10 -11 -12 -14 -15 -16 -18 -19 -20 0
-10 11 12 14 15 16 18 -19 -20 0
-10 11 12 14 15 16 -18 19 -20 0
-10 11 12 14 15 16 -18 -19 20 0
-10 11 12 14 15 -16 18 19 -20 0
-10 11 12 14 15 -16 18 -19 20 0
-10 11 12 14 15 -16 -18 19 20 0
-10 11 12 14 -15 16 18 19 20 0
-10 11 12 14 -15 16 -18 -19 -20 0
-10 11 12 14 -15 -16 18 -19 -20 0
-10 11 12 14 -15 -16 -18 19 -20 0
-10 11 12 14 -15 -16 -18 -19 20 0
-10 11 12 14 -15 -16 -18 -19 -20 0
-10 11 12 -14 15 16 18 19 -20 0
-10 11 12 -14 15 16 18 -19 20 0
-10 11 12 -14 15 16 -18 19 20 0
-10 11 12 -14 15 -16 18 19 20 0
-10 11 12 -14 -15 16 18 -19 -20 0
-10 11 12 -14 -15 16 -18 19 -20 0
-10 11 12 -14 -15 16 -18 -19 20 0
-10 11 12 -14 -15 16 -18 -19 -20 0
-10 11 12 -14 -15 -16 18 19 -20 0
-10 11 12 -14 -15 -16 18 -19 20 0
-10 11 12 -14 -15 -16 18 -19 -20 0
-10 11 12 -14 -15 -16 -18 19 20 0
-10 11 12 -14 -15 -16 -18 19 -20 0
-10 11 12 -14 -15 -16 -18 -19 20 0
-10 11 12 -14 -15 -16 -18 -19 -20 0
-10 11 -12 14 15 16 18 19 -20 0
-10 11 -12 14 15 16 18 -19 20 0
-10 11 -12 14 15 16 -18 19 20 0
-10 11 -12 14 15 -16 18 19 20 0
-10 11 -12 14 -15 16 18 -19 -20 0
-10 11 -12 14 -15 16 -18 19 -20 0
-10 11 -12 14 -15 16 -18 -19 20 0
-10 11 -12 14 -15 16 -18 -19 -20 0
-10 11 -12 14 -15 -16 18 19 -20 0
-10 11 -12 14 -15 -16 18 -19 20 0
-10 11 -12 14 -15 -16 18 -19 -20 0
-10 11 -12 14 -15 -16 -18 19 20 0
-10 11 -12 14 -15 -16 -18 19 -20 0
-10 11 -12 14 -15 -16 -18 -19 20 0
-10 11 -12 14 -15 -16 -18 -19 -20 0
-10 11 -12 -14 15 16 18 19 20 0
-10 11 -12 -14 -15 16 18 19 -20 0
-10 11 -12 -14 -15 16 18 -19 20 0
-10 11 -12 -14 -15 16 18 -19 -20 0
-10 11 -12 -14 -15 16 -18 19 20 0
-10 11 -12 -14 -15 16 -18 19 -20 0
-10 11 -12 -14 -15 16 -18 -19 20 0
-10 11 -12 -14 -15 16 -18 -19 -20 0
-10 11 -12 -14 -15 -16 18 19 20 0
-10 11 -12 -14 -15 -16 18 19 -20 0
-10 11 -12 -14 -15 -16 18 -19 20 0
-10 11 -12 -14 -15 -16 18 -19 -20 0
-10 11 -12 -14 -15 -16 -18 19 20 0
-10 11 -12 -14 -15 -16 -18 19 -20 0
-10 11 -12 -14 -15 -16 -18 -19 20 0
-10 11 -12 -14 -15 -16 -18 -19 -20 0
-10 -11 12 14 15 16 18 19 -20 0
-10 -11 12 14 15 16 18 -19 20 0
-10 -11 12 14 15 16 -18 19 20 0
-10 -11 12 14 15 -16 18 19 20 0
-10 -11 12 14 -15 16 18 -19 -20 0
-10 -11 12 14 -15 16 -18 19 -20 0
-10 -11 12 14 -15 16 -18 -19 20 0
-10 -11 12 14 -15 16 -18 -19 -20 0
-10 -11 12 14 -15 -16 18 19 -20 0
-10 -11 12 14 -15 -16 18 -19 20 0
-10 -11 12 14 -15 -16 18 -19 -20 0
-10 -11 12 14 -15 -16 -18 19 20 0
-10 -11 12 14 -15 -16 -18 19 -20 0
-10 -11 12 14 -15 -16 -18 -19 20 0
-10 -11 12 14 -15 -16 -18 -19 -20 0
-10 -11 12 -14 15 16 18 19 20 0
-10 -11 12 -14 -15 16 18 19 -20 0
-10 -11 12 -14 -15 16 18 -19 20 0
-10 -11 12 -14 -15 16 18 -19 -20 0
-10 -11 12 -14 -15 16 -18 19 20 0
-10 -11 12 -14 -15 16 -18 19 -20 0
-10 -11 12 -14 -15 16 -18 -19 20 0
-10 -11 12 -14 -15 16 -18 -19 -20 0
-10 -11 12 -14 -15 -16 18 19 20 0
-10 -11 12 -14 -15 -16 18 19 -20 0
-10 -11 12 -14 -15 -16 18 -19 20 0
-10 -11 12 -14 -15 -16 18 -19 -20 0
-10 -11 12 -14 -15 -16 -18 19 20 0
-10 -11 12 -14 -15 -16 -18 19 -20 0
-10 -11 12 -14 -15 -16 -18 -19 20 0
-10 -11 12 -14 -15 -16 -18 -19 -20 0
-10 -11 -12 14 15 16 18 19 20 0
-10 -11 -12 14 -15 16 18 19 -20 0
-10 -11 -12 14 -15 16 18 -19 20 0
-10 -11 -12 14 -15 16 18 -19 -20 0
-10 -11 -12 14 -15 16 -18 19 20 0
-10 -11 -12 14 -15 16 -18 19 -20 0
-10 -11 -12 14 -15 16 -18 -19 20 0
-10 -11 -12 14 -15 16 -18 -19 -20 0
-10 -11 -12 14 -15 -16 18 19 20 0
-10 -11 -12 14 -15 -16 18 19 -20 0
-10 -11 -12 14 -15 -16 18 -19 20 0
-10 -11 -12 14 -15 -16 18 -19 -20 0
-10 -11 -12 14 -15 -16 -18 19 20 0
-10 -11 -12 14 -15 -16 -18 19 -20 0
-10 -11 -12 14 -15 -16 -18 -19 20 0
-10 -11 -12 14 -15 -16 -18 -19 -20 0
-10 -11 -12 -14 -15 16 18 19 20 0
-10 -11 -12 -14 -15 16 18 19 -20 0
-10 -11 -12 -14 -15 16 18 -19 20 0
-10 -11 -12 -14 -15 16 18 -19 -20 0
-10 -11 -12 -14 -15 16 -18 19 20 0
-10 -11 -12 -14 -15 16 -18 19 -20 0
-10 -11 -12 -14 -15 16 -18 -19 20 0
-10 -11 -12 -14 -15 16 -18 -19 -20 0
-10 -11 -12 -14 -15 -16 18 19 20 0
-10 -11 -12 -14 -15 -16 18 19 -20 0
-10 -11 -12 -14 -15 -16 18 -19 20 0
-10 -11 -12 -14 -15 -16 18 -19 -20 0
-10 -11 -12 -14 -15 -16 -18 19 20 0
-10 -11 -12 -14 -15 -16 -18 19 -20 0
-10 -11 -12 -14 -15 -16 -18 -19 20 0
-10 -11 -12 -14 -15 -16 -18 -19 -20 0
11 12 15 -16 19 20 0
11 12 15 -16 19 -20 0
11 12 15 -16 -19 20 0
11 12 -15 16 -19 -20 0
11 12 -15 -16 19 20 0
11 -12 15 16 -19 -20 0
11 -12 15 -16 19 20 0
11 -12 -15 16 19 -20 0
11 -12 -15 16 -19 20 0
11 -12 -15 -16 -19 -20 0
-11 12 15 16 -19 -20 0
-11 12 15 -16 19 20 0
-11 12 -15 16 19 -20 0
-11 12 -15 16 -19 20 0
-11 12 -15 -16 -19 -20 0
-11 -12 15 16 19 -20 0
-11 -12 15 16 -19 20 0
-11 -12 15 -16 -19 -20 0
-11 -12 -15 16 19 20 0
-11 -12 -15 -16 19 -20 0
-11 -12 -15 -16 -19 20 0
-11 -12 -15 -16 -19 -20 0
-12 -16 -20 0
13 14 -17 18 0
13 14 -17 -18 0
13 -14 -17 18 0
-13 14 -17 18 0
-13 -14 17 -18 0
13 14 15 17 -18 19 0
13 14 15 17 -18 -19 0
13 14 15 -17 -18 19 0
13 14 -15 17 -18 19 0
13 14 -15 -17 18 -19 0
13 -14 15 17 -18 19 0
13 -14 15 -17 18 -19 0
13 -14 -15 17 18 -19 0
13 -14 -15 -17 18 19 0
13 -14 -15 -17 -18 -19 0
-13 14 15 17 -18 19 0
-13 14 15 -17 18 -19 0
-13 14 -15 17 18 -19 0
-13 14 -15 -17 18 19 0
-13 14 -15 -17 -18 -19 0
-13 -14 15 17 18 -19 0
-13 -14 15 -17 18 19 0
-13 -14 15 -17 -18 -19 0
-13 -14 -15 17 18 19 0
-13 -14 -15 17 -18 -19 0
-13 -14 -15 -17 -18 19 0
-13 -14 -15 -17 -18 -19 0
14 15 16 18 -19 20 0
14 15 16 18 -19 -20 0
14 15 16 -18 -19 20 0
14 15 -16 18 -19 20 0
14 15 -16 -18 19 -20 0
14 -15 16 18 -19 20 0
14 -15 16 -18 19 -20 0
14 -15 -16 18 19 -20 0
14 -15 -16 -18 19 20 0
14 -15 -16 -18 -19 -20 0
-14 15 16 18 -19 20 0
-14 15 16 -18 19 -20 0
-14 15 -16 18 19 -20 0
-14 15 -16 -18 19 20 0
-14 15 -16 -18 -19 -20 0
-14 -15 16 18 19 -20 0
-14 -15 16 -18 19 20 0
-14 -15 16 -18 -19 -20 0
-14 -15 -16 18 19 20 0
-14 -15 -16 18 -19 -20 0
-14 -15 -16 -18 -19 20 0
-14 -15 -16 -18 -19 -20 0
15 16 19 -20 0
15 16 -19 -20 0
15 -16 19 -20 0
-15 16 19 -20 0
-15 -16 -19 20 0
-17 -18 -19 0
-18 -19 -20 0
1 2 3 4 0
17 18 19 20 0
1 5 9 13 17 0
4 8 12 16 20 0
1 2 3 4 5 6 7 8 9 10 11 12 13 14 15 16 17 18 19 20 0
1 2 -3 -4 5 6 -7 8 9 10 11 -12 -13 -14 -15 16 -17 18 19 20 0
-1 2 -3 4 -5 -6 7 -8 9 10 11 -12 -13 -14 -15 16 -17 18 19 20 0
1 2 -3 4 5 -6 7 -8 -9 10 11 -12 -13 14 -15 16 17 -18 19 20 0
-1 2 3 4 -5 -6 -7 8 9 10 11 -12 -13 -14 15 -16 -17 18 -19 20 0
-1 2 3 -4 -5 -6 -7 -8 9 10 11 12 -13 -14 15 16 -17 -18 19 20 0
1 2 3 -4 5 -6 -7 -8 -9 10 11 12 13 -14 15 16 -17 -18 19 20 0
-1 2 3 4 -5 -6 -7 8 9 10 11 -12 13 14 -15 16 17 18 -19 -20 0
1 2 3 -4 5 -6 -7 -8 -9 10 11 12 -13 14 -15 -16 17 -18 19 -20 0
-1 2 3 -4 -5 -6 -7 -8 9 10 11 12 13 14 -15 -16 17 18 -19 -20 0
-1 2 3 -4 -5 -6 -7 -8 9 10 11 12 -13 -14 -15 -16 -17 18 19 -20 0
1 2 3 -4 5 -6 -7 -8 -9 10 11 12 13 -14 -15 -16 17 18 19 -20 0
-1 2 3 4 -5 -6 -7 8 9 10 11 -12 -13 -14 -15 16 -17 18 19 20 0
1 2 -3 -4 5 6 -7 -8 9 10 11 12 -13 -14 -15 -16 -17 18 19 -20 0
1 -2 3 -4 -5 6 -7 -8 -9 10 11 12 13 -14 -15 -16 17 18 19 -20 0
-1 -2 3 4 -5 -6 7 8 9 10 11 12 -13 -14 -15 -16 -17 18 19 -20 0
-1 -2 3 4 5 -6 7 8 -9 10 11 12 13 -14 -15 -16 17 18 19 -20 0
-1 -2 3 -4 -5 6 -7 -8 9 10 11 12 -13 14 -15 -16 -17 -18 19 -20 0
-1 2 -3 -4 -5 -6 7 -8 9 10 11 12 -13 -14 15 -16 -17 18 -19 -20 0
1 -2 3 4 -5 6 -7 8 -9 10 11 -12 13 -14 15 -16 17 18 -19 20 0
