p cnf 36 5348
-1 -2 -3 0
-2 -3 -4 0
-3 -4 -5 0
-4 -5 -6 0
1 -2 -7 -8 0
-1 2 7 8 0
-1 2 7 -8 0
-1 2 -7 8 0
-1 -2 7 8 0
1 2 3 -7 -8 -9 0
1 2 -3 7 -8 -9 0
1 2 -3 -7 8 -9 0
1 2 -3 -7 -8 9 0
1 -2 3 7 8 9 0
1 -2 3 7 8 -9 0
1 -2 3 7 -8 9 0
1 -2 3 -7 8 9 0
1 -2 -3 7 8 9 0
1 -2 -3 -7 -8 -9 0
-1 2 3 7 -8 -9 0
-1 2 3 -7 8 -9 0
-1 2 3 -7 -8 9 0
-1 2 -3 7 8 -9 0
-1 2 -3 7 -8 9 0
-1 2 -3 -7 8 9 0
-1 -2 3 7 8 9 0
-1 -2 3 -7 -8 -9 0
-1 -2 -3 7 -8 -9 0
-1 -2 -3 -7 8 -9 0
-1 -2 -3 -7 -8 9 0
-1 -2 -3 -7 -8 -9 0
2 3 4 -8 -9 -10 0
2 3 -4 8 -9 -10 0
2 3 -4 -8 9 -10 0
2 3 -4 -8 -9 10 0
2 -3 4 8 9 10 0
2 -3 4 8 9 -10 0
2 -3 4 8 -9 10 0
2 -3 4 -8 9 10 0
2 -3 -4 8 9 10 0
2 -3 -4 -8 -9 -10 0
-2 3 4 8 -9 -10 0
-2 3 4 -8 9 -10 0
-2 3 4 -8 -9 10 0
-2 3 -4 8 9 -10 0
-2 3 -4 8 -9 10 0
-2 3 -4 -8 9 10 0
-2 -3 4 8 9 10 0
-2 -3 4 -8 -9 -10 0
-2 -3 -4 8 -9 -10 0
-2 -3 -4 -8 9 -10 0
-2 -3 -4 -8 -9 10 0
-2 -3 -4 -8 -9 -10 0
3 4 5 -9 -10 -11 0
3 4 -5 9 -10 -11 0
3 4 -5 -9 10 -11 0
3 4 -5 -9 -10 11 0
3 -4 5 9 10 11 0
3 -4 5 9 10 -11 0
3 -4 5 9 -10 11 0
3 -4 5 -9 10 11 0
3 -4 -5 9 10 11 0
3 -4 -5 -9 -10 -11 0
-3 4 5 9 -10 -11 0
-3 4 5 -9 10 -11 0
-3 4 5 -9 -10 11 0
-3 4 -5 9 10 -11 0
-3 4 -5 9 -10 11 0
-3 4 -5 -9 10 11 0
-3 -4 5 9 10 11 0
-3 -4 5 -9 -10 -11 0
-3 -4 -5 9 -10 -11 0
-3 -4 -5 -9 10 -11 0
-3 -4 -5 -9 -10 11 0
-3 -4 -5 -9 -10 -11 0
4 5 6 -10 -11 -12 0
4 5 -6 10 -11 -12 0
4 5 -6 -10 11 -12 0
4 5 -6 -10 -11 12 0
4 -5 6 10 11 12 0
4 -5 6 10 11 -12 0
4 -5 6 10 -11 12 0
4 -5 6 -10 11 12 0
4 -5 -6 10 11 12 0
4 -5 -6 -10 -11 -12 0
-4 5 6 10 -11 -12 0
-4 5 6 -10 11 -12 0
-4 5 6 -10 -11 12 0
-4 5 -6 10 11 -12 0
-4 5 -6 10 -11 12 0
-4 5 -6 -10 11 12 0
-4 -5 6 10 11 12 0
-4 -5 6 -10 -11 -12 0
-4 -5 -6 10 -11 -12 0
-4 -5 -6 -10 11 -12 0
-4 -5 -6 -10 -11 12 0
-4 -5 -6 -10 -11 -12 0
5 -6 11 12 0
5 -6 11 -12 0
5 -6 -11 12 0
-5 6 -11 -12 0
-5 -6 11 12 0
-1 -7 -13 0
1 2 7 -8 -13 -14 0
1 2 -7 8 13 14 0
1 2 -7 8 13 -14 0
1 2 -7 8 -13 14 0
1 2 -7 -8 13 14 0
1 -2 7 8 -13 -14 0
1 -2 7 -8 13 -14 0
1 -2 7 -8 -13 14 0
1 -2 -7 8 13 14 0
1 -2 -7 -8 -13 -14 0
-1 2 7 8 -13 -14 0
-1 2 7 -8 13 -14 0
-1 2 7 -8 -13 14 0
-1 2 -7 8 13 14 0
-1 2 -7 -8 -13 -14 0
-1 -2 7 8 13 -14 0
-1 -2 7 8 -13 14 0
-1 -2 7 -8 13 14 0
-1 -2 -7 8 -13 -14 0
-1 -2 -7 -8 13 -14 0
-1 -2 -7 -8 -13 14 0
-1 -2 -7 -8 -13 -14 0
1 2 3 7 8 9 -13 -14 -15 0
1 2 3 7 8 -9 13 -14 -15 0
1 2 3 7 8 -9 -13 14 -15 0
1 2 3 7 8 -9 -13 -14 15 0
1 2 3 7 -8 9 13 14 15 0
1 2 3 7 -8 9 13 14 -15 0
1 2 3 7 -8 9 13 -14 15 0
1 2 3 7 -8 9 -13 14 15 0
1 2 3 7 -8 -9 13 14 15 0
1 2 3 7 -8 -9 -13 -14 -15 0
1 2 3 -7 8 9 13 -14 -15 0
1 2 3 -7 8 9 -13 14 -15 0
1 2 3 -7 8 9 -13 -14 15 0
1 2 3 -7 8 -9 13 14 -15 0
1 2 3 -7 8 -9 13 -14 15 0
1 2 3 -7 8 -9 -13 14 15 0
1 2 3 -7 -8 9 13 14 15 0
1 2 3 -7 -8 9 -13 -14 -15 0
1 2 3 -7 -8 -9 13 -14 -15 0
1 2 3 -7 -8 -9 -13 14 -15 0
1 2 3 -7 -8 -9 -13 -14 15 0
1 2 3 -7 -8 -9 -13 -14 -15 0
1 2 -3 7 8 9 13 -14 -15 0
1 2 -3 7 8 9 -13 14 -15 0
1 2 -3 7 8 9 -13 -14 15 0
1 2 -3 7 8 -9 13 14 -15 0
1 2 -3 7 8 -9 13 -14 15 0
1 2 -3 7 8 -9 -13 14 15 0
1 2 -3 7 -8 9 13 14 15 0
1 2 -3 7 -8 9 -13 -14 -15 0
1 2 -3 7 -8 -9 13 -14 -15 0
1 2 -3 7 -8 -9 -13 14 -15 0
1 2 -3 7 -8 -9 -13 -14 15 0
1 2 -3 7 -8 -9 -13 -14 -15 0
1 2 -3 -7 8 9 13 14 -15 0
1 2 -3 -7 8 9 13 -14 15 0
1 2 -3 -7 8 9 -13 14 15 0
1 2 -3 -7 8 -9 13 14 15 0
1 2 -3 -7 -8 9 13 -14 -15 0
1 2 -3 -7 -8 9 -13 14 -15 0
1 2 -3 -7 -8 9 -13 -14 15 0
1 2 -3 -7 -8 9 -13 -14 -15 0
1 2 -3 -7 -8 -9 13 14 -15 0
1 2 -3 -7 -8 -9 13 -14 15 0
1 2 -3 -7 -8 -9 13 -14 -15 0
1 2 -3 -7 -8 -9 -13 14 15 0
1 2 -3 -7 -8 -9 -13 14 -15 0
1 2 -3 -7 -8 -9 -13 -14 15 0
1 2 -3 -7 -8 -9 -13 -14 -15 0
1 -2 3 7 8 9 13 -14 -15 0
1 -2 3 7 8 9 -13 14 -15 0
1 -2 3 7 8 9 -13 -14 15 0
1 -2 3 7 8 -9 13 14 -15 0
1 -2 3 7 8 -9 13 -14 15 0
1 -2 3 7 8 -9 -13 14 15 0
1 -2 3 7 -8 9 13 14 15 0
1 -2 3 7 -8 9 -13 -14 -15 0
1 -2 3 7 -8 -9 13 -14 -15 0
1 -2 3 7 -8 -9 -13 14 -15 0
1 -2 3 7 -8 -9 -13 -14 15 0
1 -2 3 7 -8 -9 -13 -14 -15 0
1 -2 3 -7 8 9 13 14 -15 0
1 -2 3 -7 8 9 13 -14 15 0
1 -2 3 -7 8 9 -13 14 15 0
1 -2 3 -7 8 -9 13 14 15 0
1 -2 3 -7 -8 9 13 -14 -15 0
1 -2 3 -7 -8 9 -13 14 -15 0
1 -2 3 -7 -8 9 -13 -14 15 0
1 -2 3 -7 -8 9 -13 -14 -15 0
1 -2 3 -7 -8 -9 13 14 -15 0
1 -2 3 -7 -8 -9 13 -14 15 0
1 -2 3 -7 -8 -9 13 -14 -15 0
1 -2 3 -7 -8 -9 -13 14 15 0
1 -2 3 -7 -8 -9 -13 14 -15 0
1 -2 3 -7 -8 -9 -13 -14 15 0
1 -2 3 -7 -8 -9 -13 -14 -15 0
1 -2 -3 7 8 9 13 14 -15 0
1 -2 -3 7 8 9 13 -14 15 0
1 -2 -3 7 8 9 -13 14 15 0
1 -2 -3 7 8 -9 13 14 15 0
1 -2 -3 7 -8 9 13 -14 -15 0
1 -2 -3 7 -8 9 -13 14 -15 0
1 -2 -3 7 -8 9 -13 -14 15 0
1 -2 -3 7 -8 9 -13 -14 -15 0
1 -2 -3 7 -8 -9 13 14 -15 0
1 -2 -3 7 -8 -9 13 -14 15 0
1 -2 -3 7 -8 -9 13 -14 -15 0
1 -2 -3 7 -8 -9 -13 14 15 0
1 -2 -3 7 -8 -9 -13 14 -15 0
1 -2 -3 7 -8 -9 -13 -14 15 0
1 -2 -3 7 -8 -9 -13 -14 -15 0
1 -2 -3 -7 8 9 13 14 15 0
1 -2 -3 -7 -8 9 13 14 -15 0
1 -2 -3 -7 -8 9 13 -14 15 0
1 -2 -3 -7 -8 9 13 -14 -15 0
1 -2 -3 -7 -8 9 -13 14 15 0
1 -2 -3 -7 -8 9 -13 14 -15 0
1 -2 -3 -7 -8 9 -13 -14 15 0
1 -2 -3 -7 -8 9 -13 -14 -15 0
1 -2 -3 -7 -8 -9 13 14 15 0
1 -2 -3 -7 -8 -9 13 14 -15 0
1 -2 -3 -7 -8 -9 13 -14 15 0
1 -2 -3 -7 -8 -9 13 -14 -15 0
1 -2 -3 -7 -8 -9 -13 14 15 0
1 -2 -3 -7 -8 -9 -13 14 -15 0
1 -2 -3 -7 -8 -9 -13 -14 15 0
1 -2 -3 -7 -8 -9 -13 -14 -15 0
-1 2 3 7 8 9 13 -14 -15 0
-1 2 3 7 8 9 -13 14 -15 0
-1 2 3 7 8 9 -13 -14 15 0
-1 2 3 7 8 -9 13 14 -15 0
-1 2 3 7 8 -9 13 -14 15 0
-1 2 3 7 8 -9 -13 14 15 0
-1 2 3 7 -8 9 13 14 15 0
-1 2 3 7 -8 9 -13 -14 -15 0
-1 2 3 7 -8 -9 13 -14 -15 0
-1 2 3 7 -8 -9 -13 14 -15 0
-1 2 3 7 -8 -9 -13 -14 15 0
-1 2 3 7 -8 -9 -13 -14 -15 0
-1 2 3 -7 8 9 13 14 -15 0
-1 2 3 -7 8 9 13 -14 15 0
-1 2 3 -7 8 9 -13 14 15 0
-1 2 3 -7 8 -9 13 14 15 0
-1 2 3 -7 -8 9 13 -14 -15 0
-1 2 3 -7 -8 9 -13 14 -15 0
-1 2 3 -7 -8 9 -13 -14 15 0
-1 2 3 -7 -8 9 -13 -14 -15 0
-1 2 3 -7 -8 -9 13 14 -15 0
-1 2 3 -7 -8 -9 13 -14 15 0
-1 2 3 -7 -8 -9 13 -14 -15 0
-1 2 3 -7 -8 -9 -13 14 15 0
-1 2 3 -7 -8 -9 -13 14 -15 0
-1 2 3 -7 -8 -9 -13 -14 15 0
-1 2 3 -7 -8 -9 -13 -14 -15 0
-1 2 -3 7 8 9 13 14 -15 0
-1 2 -3 7 8 9 13 -14 15 0
-1 2 -3 7 8 9 -13 14 15 0
-1 2 -3 7 8 -9 13 14 15 0
-1 2 -3 7 -8 9 13 -14 -15 0
-1 2 -3 7 -8 9 -13 14 -15 0
-1 2 -3 7 -8 9 -13 -14 15 0
-1 2 -3 7 -8 9 -13 -14 -15 0
-1 2 -3 7 -8 -9 13 14 -15 0
-1 2 -3 7 -8 -9 13 -14 15 0
-1 2 -3 7 -8 -9 13 -14 -15 0
-1 2 -3 7 -8 -9 -13 14 15 0
-1 2 -3 7 -8 -9 -13 14 -15 0
-1 2 -3 7 -8 -9 -13 -14 15 0
-1 2 -3 7 -8 -9 -13 -14 -15 0
-1 2 -3 -7 8 9 13 14 15 0
-1 2 -3 -7 -8 9 13 14 -15 0
-1 2 -3 -7 -8 9 13 -14 15 0
-1 2 -3 -7 -8 9 13 -14 -15 0
-1 2 -3 -7 -8 9 -13 14 15 0
-1 2 -3 -7 -8 9 -13 14 -15 0
-1 2 -3 -7 -8 9 -13 -14 15 0
-1 2 -3 -7 -8 9 -13 -14 -15 0
-1 2 -3 -7 -8 -9 13 14 15 0
-1 2 -3 -7 -8 -9 13 14 -15 0
-1 2 -3 -7 -8 -9 13 -14 15 0
-1 2 -3 -7 -8 -9 13 -14 -15 0
-1 2 -3 -7 -8 -9 -13 14 15 0
-1 2 -3 -7 -8 -9 -13 14 -15 0
-1 2 -3 -7 -8 -9 -13 -14 15 0
-1 2 -3 -7 -8 -9 -13 -14 -15 0
-1 -2 3 7 8 9 13 14 -15 0
-1 -2 3 7 8 9 13 -14 15 0
-1 -2 3 7 8 9 -13 14 15 0
-1 -2 3 7 8 -9 13 14 15 0
-1 -2 3 7 -8 9 13 -14 -15 0
-1 -2 3 7 -8 9 -13 14 -15 0
-1 -2 3 7 -8 9 -13 -14 15 0
-1 -2 3 7 -8 9 -13 -14 -15 0
-1 -2 3 7 -8 -9 13 14 -15 0
-1 -2 3 7 -8 -9 13 -14 15 0
-1 -2 3 7 -8 -9 13 -14 -15 0
-1 -2 3 7 -8 -9 -13 14 15 0
-1 -2 3 7 -8 -9 -13 14 -15 0
-1 -2 3 7 -8 -9 -13 -14 15 0
-1 -2 3 7 -8 -9 -13 -14 -15 0
-1 -2 3 -7 8 9 13 14 15 0
-1 -2 3 -7 -8 9 13 14 -15 0
-1 -2 3 -7 -8 9 13 -14 15 0
-1 -2 3 -7 -8 9 13 -14 -15 0
-1 -2 3 -7 -8 9 -13 14 15 0
-1 -2 3 -7 -8 9 -13 14 -15 0
-1 -2 3 -7 -8 9 -13 -14 15 0
-1 -2 3 -7 -8 9 -13 -14 -15 0
-1 -2 3 -7 -8 -9 13 14 15 0
-1 -2 3 -7 -8 -9 13 14 -15 0
-1 -2 3 -7 -8 -9 13 -14 15 0
-1 -2 3 -7 -8 -9 13 -14 -15 0
-1 -2 3 -7 -8 -9 -13 14 15 0
-1 -2 3 -7 -8 -9 -13 14 -15 0
-1 -2 3 -7 -8 -9 -13 -14 15 0
-1 -2 3 -7 -8 -9 -13 -14 -15 0
-1 -2 -3 7 8 9 13 14 15 0
-1 -2 -3 7 -8 9 13 14 -15 0
-1 -2 -3 7 -8 9 13 -14 15 0
-1 -2 -3 7 -8 9 13 -14 -15 0
-1 -2 -3 7 -8 9 -13 14 15 0
-1 -2 -3 7 -8 9 -13 14 -15 0
-1 -2 -3 7 -8 9 -13 -14 15 0
-1 -2 -3 7 -8 9 -13 -14 -15 0
-1 -2 -3 7 -8 -9 13 14 15 0
-1 -2 -3 7 -8 -9 13 14 -15 0
-1 -2 -3 7 -8 -9 13 -14 15 0
-1 -2 -3 7 -8 -9 13 -14 -15 0
-1 -2 -3 7 -8 -9 -13 14 15 0
-1 -2 -3 7 -8 -9 -13 14 -15 0
-1 -2 -3 7 -8 -9 -13 -14 15 0
-1 -2 -3 7 -8 -9 -13 -14 -15 0
-1 -2 -3 -7 -8 9 13 14 15 0
-1 -2 -3 -7 -8 9 13 14 -15 0
-1 -2 -3 -7 -8 9 13 -14 15 0
-1 -2 -3 -7 -8 9 13 -14 -15 0
-1 -2 -3 -7 -8 9 -13 14 15 0
-1 -2 -3 -7 -8 9 -13 14 -15 0
-1 -2 -3 -7 -8 9 -13 -14 15 0
-1 -2 -3 -7 -8 9 -13 -14 -15 0
-1 -2 -3 -7 -8 -9 13 14 15 0
-1 -2 -3 -7 -8 -9 13 14 -15 0
-1 -2 -3 -7 -8 -9 13 -14 15 0
-1 -2 -3 -7 -8 -9 13 -14 -15 0
-1 -2 -3 -7 -8 -9 -13 14 15 0
-1 -2 -3 -7 -8 -9 -13 14 -15 0
-1 -2 -3 -7 -8 -9 -13 -14 15 0
-1 -2 -3 -7 -8 -9 -13 -14 -15 0
2 3 4 8 9 10 -14 -15 -16 0
2 3 4 8 9 -10 14 -15 -16 0
2 3 4 8 9 -10 -14 15 -16 0
2 3 4 8 9 -10 -14 -15 16 0
2 3 4 8 -9 10 14 15 16 0
2 3 4 8 -9 10 14 15 -16 0
2 3 4 8 -9 10 14 -15 16 0
2 3 4 8 -9 10 -14 15 16 0
2 3 4 8 -9 -10 14 15 16 0
2 3 4 8 -9 -10 -14 -15 -16 0
2 3 4 -8 9 10 14 -15 -16 0
2 3 4 -8 9 10 -14 15 -16 0
2 3 4 -8 9 10 -14 -15 16 0
2 3 4 -8 9 -10 14 15 -16 0
2 3 4 -8 9 -10 14 -15 16 0
2 3 4 -8 9 -10 -14 15 16 0
2 3 4 -8 -9 10 14 15 16 0
2 3 4 -8 -9 10 -14 -15 -16 0
2 3 4 -8 -9 -10 14 -15 -16 0
2 3 4 -8 -9 -10 -14 15 -16 0
2 3 4 -8 -9 -10 -14 -15 16 0
2 3 4 -8 -9 -10 -14 -15 -16 0
2 3 -4 8 9 10 14 -15 -16 0
2 3 -4 8 9 10 -14 15 -16 0
2 3 -4 8 9 10 -14 -15 16 0
2 3 -4 8 9 -10 14 15 -16 0
2 3 -4 8 9 -10 14 -15 16 0
2 3 -4 8 9 -10 -14 15 16 0
2 3 -4 8 -9 10 14 15 16 0
2 3 -4 8 -9 10 -14 -15 -16 0
2 3 -4 8 -9 -10 14 -15 -16 0
2 3 -4 8 -9 -10 -14 15 -16 0
2 3 -4 8 -9 -10 -14 -15 16 0
2 3 -4 8 -9 -10 -14 -15 -16 0
2 3 -4 -8 9 10 14 15 -16 0
2 3 -4 -8 9 10 14 -15 16 0
2 3 -4 -8 9 10 -14 15 16 0
2 3 -4 -8 9 -10 14 15 16 0
2 3 -4 -8 -9 10 14 -15 -16 0
2 3 -4 -8 -9 10 -14 15 -16 0
2 3 -4 -8 -9 10 -14 -15 16 0
2 3 -4 -8 -9 10 -14 -15 -16 0
2 3 -4 -8 -9 -10 14 15 -16 0
2 3 -4 -8 -9 -10 14 -15 16 0
2 3 -4 -8 -9 -10 14 -15 -16 0
2 3 -4 -8 -9 -10 -14 15 16 0
2 3 -4 -8 -9 -10 -14 15 -16 0
2 3 -4 -8 -9 -10 -14 -15 16 0
2 3 -4 -8 -9 -10 -14 -15 -16 0
2 -3 4 8 9 10 14 -15 -16 0
2 -3 4 8 9 10 -14 15 -16 0
2 -3 4 8 9 10 -14 -15 16 0
2 -3 4 8 9 -10 14 15 -16 0
2 -3 4 8 9 -10 14 -15 16 0
2 -3 4 8 9 -10 -14 15 16 0
2 -3 4 8 -9 10 14 15 16 0
2 -3 4 8 -9 10 -14 -15 -16 0
2 -3 4 8 -9 -10 14 -15 -16 0
2 -3 4 8 -9 -10 -14 15 -16 0
2 -3 4 8 -9 -10 -14 -15 16 0
2 -3 4 8 -9 -10 -14 -15 -16 0
2 -3 4 -8 9 10 14 15 -16 0
2 -3 4 -8 9 10 14 -15 16 0
2 -3 4 -8 9 10 -14 15 16 0
2 -3 4 -8 9 -10 14 15 16 0
2 -3 4 -8 -9 10 14 -15 -16 0
2 -3 4 -8 -9 10 -14 15 -16 0
2 -3 4 -8 -9 10 -14 -15 16 0
2 -3 4 -8 -9 10 -14 -15 -16 0
2 -3 4 -8 -9 -10 14 15 -16 0
2 -3 4 -8 -9 -10 14 -15 16 0
2 -3 4 -8 -9 -10 14 -15 -16 0
2 -3 4 -8 -9 -10 -14 15 16 0
2 -3 4 -8 -9 -10 -14 15 -16 0
2 -3 4 -8 -9 -10 -14 -15 16 0
2 -3 4 -8 -9 -10 -14 -15 -16 0
2 -3 -4 8 9 10 14 15 -16 0
2 -3 -4 8 9 10 14 -15 16 0
2 -3 -4 8 9 10 -14 15 16 0
2 -3 -4 8 9 -10 14 15 16 0
2 -3 -4 8 -9 10 14 -15 -16 0
2 -3 -4 8 -9 10 -14 15 -16 0
2 -3 -4 8 -9 10 -14 -15 16 0
2 -3 -4 8 -9 10 -14 -15 -16 0
2 -3 -4 8 -9 -10 14 15 -16 0
2 -3 -4 8 -9 -10 14 -15 16 0
2 -3 -4 8 -9 -10 14 -15 -16 0
2 -3 -4 8 -9 -10 -14 15 16 0
2 -3 -4 8 -9 -10 -14 15 -16 0
2 -3 -4 8 -9 -10 -14 -15 16 0
2 -3 -4 8 -9 -10 -14 -15 -16 0
2 -3 -4 -8 9 10 14 15 16 0
2 -3 -4 -8 -9 10 14 15 -16 0
2 -3 -4 -8 -9 10 14 -15 16 0
2 -3 -4 -8 -9 10 14 -15 -16 0
2 -3 -4 -8 -9 10 -14 15 16 0
2 -3 -4 -8 -9 10 -14 15 -16 0
2 -3 -4 -8 -9 10 -14 -15 16 0
2 -3 -4 -8 -9 10 -14 -15 -16 0
2 -3 -4 -8 -9 -10 14 15 16 0
2 -3 -4 -8 -9 -10 14 15 -16 0
2 -3 -4 -8 -9 -10 14 -15 16 0
2 -3 -4 -8 -9 -10 14 -15 -16 0
2 -3 -4 -8 -9 -10 -14 15 16 0
2 -3 -4 -8 -9 -10 -14 15 -16 0
2 -3 -4 -8 -9 -10 -14 -15 16 0
2 -3 -4 -8 -9 -10 -14 -15 -16 0
-2 3 4 8 9 10 14 -15 -16 0
-2 3 4 8 9 10 -14 15 -16 0
-2 3 4 8 9 10 -14 -15 16 0
-2 3 4 8 9 -10 14 15 -16 0
-2 3 4 8 9 -10 14 -15 16 0
-2 3 4 8 9 -10 -14 15 16 0
-2 3 4 8 -9 10 14 15 16 0
-2 3 4 8 -9 10 -14 -15 -16 0
-2 3 4 8 -9 -10 14 -15 -16 0
-2 3 4 8 -9 -10 -14 15 -16 0
-2 3 4 8 -9 -10 -14 -15 16 0
-2 3 4 8 -9 -10 -14 -15 -16 0
-2 3 4 -8 9 10 14 15 -16 0
-2 3 4 -8 9 10 14 -15 16 0
-2 3 4 -8 9 10 -14 15 16 0
-2 3 4 -8 9 -10 14 15 16 0
-2 3 4 -8 -9 10 14 -15 -16 0
-2 3 4 -8 -9 10 -14 15 -16 0
-2 3 4 -8 -9 10 -14 -15 16 0
-2 3 4 -8 -9 10 -14 -15 -16 0
-2 3 4 -8 -9 -10 14 15 -16 0
-2 3 4 -8 -9 -10 14 -15 16 0
-2 3 4 -8 -9 -10 14 -15 -16 0
-2 3 4 -8 -9 -10 -14 15 16 0
-2 3 4 -8 -9 -10 -14 15 -16 0
-2 3 4 -8 -9 -10 -14 -15 16 0
-2 3 4 -8 -9 -10 -14 -15 -16 0
-2 3 -4 8 9 10 14 15 -16 0
-2 3 -4 8 9 10 14 -15 16 0
-2 3 -4 8 9 10 -14 15 16 0
-2 3 -4 8 9 -10 14 15 16 0
-2 3 -4 8 -9 10 14 -15 -16 0
-2 3 -4 8 -9 10 -14 15 -16 0
-2 3 -4 8 -9 10 -14 -15 16 0
-2 3 -4 8 -9 10 -14 -15 -16 0
-2 3 -4 8 -9 -10 14 15 -16 0
-2 3 -4 8 -9 -10 14 -15 16 0
-2 3 -4 8 -9 -10 14 -15 -16 0
-2 3 -4 8 -9 -10 -14 15 16 0
-2 3 -4 8 -9 -10 -14 15 -16 0
-2 3 -4 8 -9 -10 -14 -15 16 0
-2 3 -4 8 -9 -10 -14 -15 -16 0
-2 3 -4 -8 9 10 14 15 16 0
-2 3 -4 -8 -9 10 14 15 -16 0
-2 3 -4 -8 -9 10 14 -15 16 0
-2 3 -4 -8 -9 10 14 -15 -16 0
-2 3 -4 -8 -9 10 -14 15 16 0
-2 3 -4 -8 -9 10 -14 15 -16 0
-2 3 -4 -8 -9 10 -14 -15 16 0
-2 3 -4 -8 -9 10 -14 -15 -16 0
-2 3 -4 -8 -9 -10 14 15 16 0
-2 3 -4 -8 -9 -10 14 15 -16 0
-2 3 -4 -8 -9 -10 14 -15 16 0
-2 3 -4 -8 -9 -10 14 -15 -16 0
-2 3 -4 -8 -9 -10 -14 15 16 0
-2 3 -4 -8 -9 -10 -14 15 -16 0
-2 3 -4 -8 -9 -10 -14 -15 16 0
-2 3 -4 -8 -9 -10 -14 -15 -16 0
-2 -3 4 8 9 10 14 15 -16 0
-2 -3 4 8 9 10 14 -15 16 0
-2 -3 4 8 9 10 -14 15 16 0
-2 -3 4 8 9 -10 14 15 16 0
-2 -3 4 8 -9 10 14 -15 -16 0
-2 -3 4 8 -9 10 -14 15 -16 0
-2 -3 4 8 -9 10 -14 -15 16 0
-2 -3 4 8 -9 10 -14 -15 -16 0
-2 -3 4 8 -9 -10 14 15 -16 0
-2 -3 4 8 -9 -10 14 -15 16 0
-2 -3 4 8 -9 -10 14 -15 -16 0
-2 -3 4 8 -9 -10 -14 15 16 0
-2 -3 4 8 -9 -10 -14 15 -16 0
-2 -3 4 8 -9 -10 -14 -15 16 0
-2 -3 4 8 -9 -10 -14 -15 -16 0
-2 -3 4 -8 9 10 14 15 16 0
-2 -3 4 -8 -9 10 14 15 -16 0
-2 -3 4 -8 -9 10 14 -15 16 0
-2 -3 4 -8 -9 10 14 -15 -16 0
-2 -3 4 -8 -9 10 -14 15 16 0
-2 -3 4 -8 -9 10 -14 15 -16 0
-2 -3 4 -8 -9 10 -14 -15 16 0
-2 -3 4 -8 -9 10 -14 -15 -16 0
-2 -3 4 -8 -9 -10 14 15 16 0
-2 -3 4 -8 -9 -10 14 15 -16 0
-2 -3 4 -8 -9 -10 14 -15 16 0
-2 -3 4 -8 -9 -10 14 -15 -16 0
-2 -3 4 -8 -9 -10 -14 15 16 0
-2 -3 4 -8 -9 -10 -14 15 -16 0
-2 -3 4 -8 -9 -10 -14 -15 16 0
-2 -3 4 -8 -9 -10 -14 -15 -16 0
-2 -3 -4 8 9 10 14 15 16 0
-2 -3 -4 8 -9 10 14 15 -16 0
-2 -3 -4 8 -9 10 14 -15 16 0
-2 -3 -4 8 -9 10 14 -15 -16 0
-2 -3 -4 8 -9 10 -14 15 16 0
-2 -3 -4 8 -9 10 -14 15 -16 0
-2 -3 -4 8 -9 10 -14 -15 16 0
-2 -3 -4 8 -9 10 -14 -15 -16 0
-2 -3 -4 8 -9 -10 14 15 16 0
-2 -3 -4 8 -9 -10 14 15 -16 0
-2 -3 -4 8 -9 -10 14 -15 16 0
-2 -3 -4 8 -9 -10 14 -15 -16 0
-2 -3 -4 8 -9 -10 -14 15 16 0
-2 -3 -4 8 -9 -10 -14 15 -16 0
-2 -3 -4 8 -9 -10 -14 -15 16 0
-2 -3 -4 8 -9 -10 -14 -15 -16 0
-2 -3 -4 -8 -9 10 14 15 16 0
-2 -3 -4 -8 -9 10 14 15 -16 0
-2 -3 -4 -8 -9 10 14 -15 16 0
-2 -3 -4 -8 -9 10 14 -15 -16 0
-2 -3 -4 -8 -9 10 -14 15 16 0
-2 -3 -4 -8 -9 10 -14 15 -16 0
-2 -3 -4 -8 -9 10 -14 -15 16 0
-2 -3 -4 -8 -9 10 -14 -15 -16 0
-2 -3 -4 -8 -9 -10 14 15 16 0
-2 -3 -4 -8 -9 -10 14 15 -16 0
-2 -3 -4 -8 -9 -10 14 -15 16 0
-2 -3 -4 -8 -9 -10 14 -15 -16 0
-2 -3 -4 -8 -9 -10 -14 15 16 0
-2 -3 -4 -8 -9 -10 -14 15 -16 0
-2 -3 -4 -8 -9 -10 -14 -15 16 0
-2 -3 -4 -8 -9 -10 -14 -15 -16 0
3 4 5 9 10 11 -15 -16 -17 0
3 4 5 9 10 -11 15 -16 -17 0
3 4 5 9 10 -11 -15 16 -17 0
3 4 5 9 10 -11 -15 -16 17 0
3 4 5 9 -10 11 15 16 17 0
3 4 5 9 -10 11 15 16 -17 0
3 4 5 9 -10 11 15 -16 17 0
3 4 5 9 -10 11 -15 16 17 0
3 4 5 9 -10 -11 15 16 17 0
3 4 5 9 -10 -11 -15 -16 -17 0
3 4 5 -9 10 11 15 -16 -17 0
3 4 5 -9 10 11 -15 16 -17 0
3 4 5 -9 10 11 -15 -16 17 0
3 4 5 -9 10 -11 15 16 -17 0
3 4 5 -9 10 -11 15 -16 17 0
3 4 5 -9 10 -11 -15 16 17 0
3 4 5 -9 -10 11 15 16 17 0
3 4 5 -9 -10 11 -15 -16 -17 0
3 4 5 -9 -10 -11 15 -16 -17 0
3 4 5 -9 -10 -11 -15 16 -17 0
3 4 5 -9 -10 -11 -15 -16 17 0
3 4 5 -9 -10 -11 -15 -16 -17 0
3 4 -5 9 10 11 15 -16 -17 0
3 4 -5 9 10 11 -15 16 -17 0
3 4 -5 9 10 11 -15 -16 17 0
3 4 -5 9 10 -11 15 16 -17 0
3 4 -5 9 10 -11 15 -16 17 0
3 4 -5 9 10 -11 -15 16 17 0
3 4 -5 9 -10 11 15 16 17 0
3 4 -5 9 -10 11 -15 -16 -17 0
3 4 -5 9 -10 -11 15 -16 -17 0
3 4 -5 9 -10 -11 -15 16 -17 0
3 4 -5 9 -10 -11 -15 -16 17 0
3 4 -5 9 -10 -11 -15 -16 -17 0
3 4 -5 -9 10 11 15 16 -17 0
3 4 -5 -9 10 11 15 -16 17 0
3 4 -5 -9 10 11 -15 16 17 0
3 4 -5 -9 10 -11 15 16 17 0
3 4 -5 -9 -10 11 15 -16 -17 0
3 4 -5 -9 -10 11 -15 16 -17 0
3 4 -5 -9 -10 11 -15 -16 17 0
3 4 -5 -9 -10 11 -15 -16 -17 0
3 4 -5 -9 -10 -11 15 16 -17 0
3 4 -5 -9 -10 -11 15 -16 17 0
3 4 -5 -9 -10 -11 15 -16 -17 0
3 4 -5 -9 -10 -11 -15 16 17 0
3 4 -5 -9 -10 -11 -15 16 -17 0
3 4 -5 -9 -10 -11 -15 -16 17 0
3 4 -5 -9 -10 -11 -15 -16 -17 0
3 -4 5 9 10 11 15 -16 -17 0
3 -4 5 9 10 11 -15 16 -17 0
3 -4 5 9 10 11 -15 -16 17 0
3 -4 5 9 10 -11 15 16 -17 0
3 -4 5 9 10 -11 15 -16 17 0
3 -4 5 9 10 -11 -15 16 17 0
3 -4 5 9 -10 11 15 16 17 0
3 -4 5 9 -10 11 -15 -16 -17 0
3 -4 5 9 -10 -11 15 -16 -17 0
3 -4 5 9 -10 -11 -15 16 -17 0
3 -4 5 9 -10 -11 -15 -16 17 0
3 -4 5 9 -10 -11 -15 -16 -17 0
3 -4 5 -9 10 11 15 16 -17 0
3 -4 5 -9 10 11 15 -16 17 0
3 -4 5 -9 10 11 -15 16 17 0
3 -4 5 -9 10 -11 15 16 17 0
3 -4 5 -9 -10 11 15 -16 -17 0
3 -4 5 -9 -10 11 -15 16 -17 0
3 -4 5 -9 -10 11 -15 -16 17 0
3 -4 5 -9 -10 11 -15 -16 -17 0
3 -4 5 -9 -10 -11 15 16 -17 0
3 -4 5 -9 -10 -11 15 -16 17 0
3 -4 5 -9 -10 -11 15 -16 -17 0
3 -4 5 -9 -10 -11 -15 16 17 0
3 -4 5 -9 -10 -11 -15 16 -17 0
3 -4 5 -9 -10 -11 -15 -16 17 0
3 -4 5 -9 -10 -11 -15 -16 -17 0
3 -4 -5 9 10 11 15 16 -17 0
3 -4 -5 9 10 11 15 -16 17 0
3 -4 -5 9 10 11 -15 16 17 0
3 -4 -5 9 10 -11 15 16 17 0
3 -4 -5 9 -10 11 15 -16 -17 0
3 -4 -5 9 -10 11 -15 16 -17 0
3 -4 -5 9 -10 11 -15 -16 17 0
3 -4 -5 9 -10 11 -15 -16 -17 0
3 -4 -5 9 -10 -11 15 16 -17 0
3 -4 -5 9 -10 -11 15 -16 17 0
3 -4 -5 9 -10 -11 15 -16 -17 0
3 -4 -5 9 -10 -11 -15 16 17 0
3 -4 -5 9 -10 -11 -15 16 -17 0
3 -4 -5 9 -10 -11 -15 -16 17 0
3 -4 -5 9 -10 -11 -15 -16 -17 0
3 -4 -5 -9 10 11 15 16 17 0
3 -4 -5 -9 -10 11 15 16 -17 0
3 -4 -5 -9 -10 11 15 -16 17 0
3 -4 -5 -9 -10 11 15 -16 -17 0
3 -4 -5 -9 -10 11 -15 16 17 0
3 -4 -5 -9 -10 11 -15 16 -17 0
3 -4 -5 -9 -10 11 -15 -16 17 0
3 -4 -5 -9 -10 11 -15 -16 -17 0
3 -4 -5 -9 -10 -11 15 16 17 0
3 -4 -5 -9 -10 -11 15 16 -17 0
3 -4 -5 -9 -10 -11 15 -16 17 0
3 -4 -5 -9 -10 -11 15 -16 -17 0
3 -4 -5 -9 -10 -11 -15 16 17 0
3 -4 -5 -9 -10 -11 -15 16 -17 0
3 -4 -5 -9 -10 -11 -15 -16 17 0
3 -4 -5 -9 -10 -11 -15 -16 -17 0
-3 4 5 9 10 11 15 -16 -17 0
-3 4 5 9 10 11 -15 16 -17 0
-3 4 5 9 10 11 -15 -16 17 0
-3 4 5 9 10 -11 15 16 -17 0
-3 4 5 9 10 -11 15 -16 17 0
-3 4 5 9 10 -11 -15 16 17 0
-3 4 5 9 -10 11 15 16 17 0
-3 4 5 9 -10 11 -15 -16 -17 0
-3 4 5 9 -10 -11 15 -16 -17 0
-3 4 5 9 -10 -11 -15 16 -17 0
-3 4 5 9 -10 -11 -15 -16 17 0
-3 4 5 9 -10 -11 -15 -16 -17 0
-3 4 5 -9 10 11 15 16 -17 0
-3 4 5 -9 10 11 15 -16 17 0
-3 4 5 -9 10 11 -15 16 17 0
-3 4 5 -9 10 -11 15 16 17 0
-3 4 5 -9 -10 11 15 -16 -17 0
-3 4 5 -9 -10 11 -15 16 -17 0
-3 4 5 -9 -10 11 -15 -16 17 0
-3 4 5 -9 -10 11 -15 -16 -17 0
-3 4 5 -9 -10 -11 15 16 -17 0
-3 4 5 -9 -10 -11 15 -16 17 0
-3 4 5 -9 -10 -11 15 -16 -17 0
-3 4 5 -9 -10 -11 -15 16 17 0
-3 4 5 -9 -10 -11 -15 16 -17 0
-3 4 5 -9 -10 -11 -15 -16 17 0
-3 4 5 -9 -10 -11 -15 -16 -17 0
-3 4 -5 9 10 11 15 16 -17 0
-3 4 -5 9 10 11 15 -16 17 0
-3 4 -5 9 10 11 -15 16 17 0
-3 4 -5 9 10 -11 15 16 17 0
-3 4 -5 9 -10 11 15 -16 -17 0
-3 4 -5 9 -10 11 -15 16 -17 0
-3 4 -5 9 -10 11 -15 -16 17 0
-3 4 -5 9 -10 11 -15 -16 -17 0
-3 4 -5 9 -10 -11 15 16 -17 0
-3 4 -5 9 -10 -11 15 -16 17 0
-3 4 -5 9 -10 -11 15 -16 -17 0
-3 4 -5 9 -10 -11 -15 16 17 0
-3 4 -5 9 -10 -11 -15 16 -17 0
-3 4 -5 9 -10 -11 -15 -16 17 0
-3 4 -5 9 -10 -11 -15 -16 -17 0
-3 4 -5 -9 10 11 15 16 17 0
-3 4 -5 -9 -10 11 15 16 -17 0
-3 4 -5 -9 -10 11 15 -16 17 0
-3 4 -5 -9 -10 11 15 -16 -17 0
-3 4 -5 -9 -10 11 -15 16 17 0
-3 4 -5 -9 -10 11 -15 16 -17 0
-3 4 -5 -9 -10 11 -15 -16 17 0
-3 4 -5 -9 -10 11 -15 -16 -17 0
-3 4 -5 -9 -10 -11 15 16 17 0
-3 4 -5 -9 -10 -11 15 16 -17 0
-3 4 -5 -9 -10 -11 15 -16 17 0
-3 4 -5 -9 -10 -11 15 -16 -17 0
-3 4 -5 -9 -10 -11 -15 16 17 0
-3 4 -5 -9 -10 -11 -15 16 -17 0
-3 4 -5 -9 -10 -11 -15 -16 17 0
-3 4 -5 -9 -10 -11 -15 -16 -17 0
-3 -4 5 9 10 11 15 16 -17 0
-3 -4 5 9 10 11 15 -16 17 0
-3 -4 5 9 10 11 -15 16 17 0
-3 -4 5 9 10 -11 15 16 17 0
-3 -4 5 9 -10 11 15 -16 -17 0
-3 -4 5 9 -10 11 -15 16 -17 0
-3 -4 5 9 -10 11 -15 -16 17 0
-3 -4 5 9 -10 11 -15 -16 -17 0
-3 -4 5 9 -10 -11 15 16 -17 0
-3 -4 5 9 -10 -11 15 -16 17 0
-3 -4 5 9 -10 -11 15 -16 -17 0
-3 -4 5 9 -10 -11 -15 16 17 0
-3 -4 5 9 -10 -11 -15 16 -17 0
-3 -4 5 9 -10 -11 -15 -16 17 0
-3 -4 5 9 -10 -11 -15 -16 -17 0
-3 -4 5 -9 10 11 15 16 17 0
-3 -4 5 -9 -10 11 15 16 -17 0
-3 -4 5 -9 -10 11 15 -16 17 0
-3 -4 5 -9 -10 11 15 -16 -17 0
-3 -4 5 -9 -10 11 -15 16 17 0
-3 -4 5 -9 -10 11 -15 16 -17 0
-3 -4 5 -9 -10 11 -15 -16 17 0
-3 -4 5 -9 -10 11 -15 -16 -17 0
-3 -4 5 -9 -10 -11 15 16 17 0
-3 -4 5 -9 -10 -11 15 16 -17 0
-3 -4 5 -9 -10 -11 15 -16 17 0
-3 -4 5 -9 -10 -11 15 -16 -17 0
-3 -4 5 -9 -10 -11 -15 16 17 0
-3 -4 5 -9 -10 -11 -15 16 -17 0
-3 -4 5 -9 -10 -11 -15 -16 17 0
-3 -4 5 -9 -10 -11 -15 -16 -17 0
-3 -4 -5 9 10 11 15 16 17 0
-3 -4 -5 9 -10 11 15 16 -17 0
-3 -4 -5 9 -10 11 15 -16 17 0
-3 -4 -5 9 -10 11 15 -16 -17 0
-3 -4 -5 9 -10 11 -15 16 17 0
-3 -4 -5 9 -10 11 -15 16 -17 0
-3 -4 -5 9 -10 11 -15 -16 17 0
-3 -4 -5 9 -10 11 -15 -16 -17 0
-3 -4 -5 9 -10 -11 15 16 17 0
-3 -4 -5 9 -10 -11 15 16 -17 0
-3 -4 -5 9 -10 -11 15 -16 17 0
-3 -4 -5 9 -10 -11 15 -16 -17 0
-3 -4 -5 9 -10 -11 -15 16 17 0
-3 -4 -5 9 -10 -11 -15 16 -17 0
-3 -4 -5 9 -10 -11 -15 -16 17 0
-3 -4 -5 9 -10 -11 -15 -16 -17 0
-3 -4 -5 -9 -10 11 15 16 17 0
-3 -4 -5 -9 -10 11 15 16 -17 0
-3 -4 -5 -9 -10 11 15 -16 17 0
-3 -4 -5 -9 -10 11 15 -16 -17 0
-3 -4 -5 -9 -10 11 -15 16 17 0
-3 -4 -5 -9 -10 11 -15 16 -17 0
-3 -4 -5 -9 -10 11 -15 -16 17 0
-3 -4 -5 -9 -10 11 -15 -16 -17 0
-3 -4 -5 -9 -10 -11 15 16 17 0
-3 -4 -5 -9 -10 -11 15 16 -17 0
-3 -4 -5 -9 -10 -11 15 -16 17 0
-3 -4 -5 -9 -10 -11 15 -16 -17 0
-3 -4 -5 -9 -10 -11 -15 16 17 0
-3 -4 -5 -9 -10 -11 -15 16 -17 0
-3 -4 -5 -9 -10 -11 -15 -16 17 0
-3 -4 -5 -9 -10 -11 -15 -16 -17 0
4 5 6 10 11 12 -16 -17 -18 0
4 5 6 10 11 -12 16 -17 -18 0
4 5 6 10 11 -12 -16 17 -18 0
4 5 6 10 11 -12 -16 -17 18 0
4 5 6 10 -11 12 16 17 18 0
4 5 6 10 -11 12 16 17 -18 0
4 5 6 10 -11 12 16 -17 18 0
4 5 6 10 -11 12 -16 17 18 0
4 5 6 10 -11 -12 16 17 18 0
4 5 6 10 -11 -12 -16 -17 -18 0
4 5 6 -10 11 12 16 -17 -18 0
4 5 6 -10 11 12 -16 17 -18 0
4 5 6 -10 11 12 -16 -17 18 0
4 5 6 -10 11 -12 16 17 -18 0
4 5 6 -10 11 -12 16 -17 18 0
4 5 6 -10 11 -12 -16 17 18 0
4 5 6 -10 -11 12 16 17 18 0
4 5 6 -10 -11 12 -16 -17 -18 0
4 5 6 -10 -11 -12 16 -17 -18 0
4 5 6 -10 -11 -12 -16 17 -18 0
4 5 6 -10 -11 -12 -16 -17 18 0
4 5 6 -10 -11 -12 -16 -17 -18 0
4 5 -6 10 11 12 16 -17 -18 0
4 5 -6 10 11 12 -16 17 -18 0
4 5 -6 10 11 12 -16 -17 18 0
4 5 -6 10 11 -12 16 17 -18 0
4 5 -6 10 11 -12 16 -17 18 0
4 5 -6 10 11 -12 -16 17 18 0
4 5 -6 10 -11 12 16 17 18 0
4 5 -6 10 -11 12 -16 -17 -18 0
4 5 -6 10 -11 -12 16 -17 -18 0
4 5 -6 10 -11 -12 -16 17 -18 0
4 5 -6 10 -11 -12 -16 -17 18 0
4 5 -6 10 -11 -12 -16 -17 -18 0
4 5 -6 -10 11 12 16 17 -18 0
4 5 -6 -10 11 12 16 -17 18 0
4 5 -6 -10 11 12 -16 17 18 0
4 5 -6 -10 11 -12 16 17 18 0
4 5 -6 -10 -11 12 16 -17 -18 0
4 5 -6 -10 -11 12 -16 17 -18 0
4 5 -6 -10 -11 12 -16 -17 18 0
4 5 -6 -10 -11 12 -16 -17 -18 0
4 5 -6 -10 -11 -12 16 17 -18 0
4 5 -6 -10 -11 -12 16 -17 18 0
4 5 -6 -10 -11 -12 16 -17 -18 0
4 5 -6 -10 -11 -12 -16 17 18 0
4 5 -6 -10 -11 -12 -16 17 -18 0
4 5 -6 -10 -11 -12 -16 -17 18 0
4 5 -6 -10 -11 -12 -16 -17 -18 0
4 -5 6 10 11 12 16 -17 -18 0
4 -5 6 10 11 12 -16 17 -18 0
4 -5 6 10 11 12 -16 -17 18 0
4 -5 6 10 11 -12 16 17 -18 0
4 -5 6 10 11 -12 16 -17 18 0
4 -5 6 10 11 -12 -16 17 18 0
4 -5 6 10 -11 12 16 17 18 0
4 -5 6 10 -11 12 -16 -17 -18 0
4 -5 6 10 -11 -12 16 -17 -18 0
4 -5 6 10 -11 -12 -16 17 -18 0
4 -5 6 10 -11 -12 -16 -17 18 0
4 -5 6 10 -11 -12 -16 -17 -18 0
4 -5 6 -10 11 12 16 17 -18 0
4 -5 6 -10 11 12 16 -17 18 0
4 -5 6 -10 11 12 -16 17 18 0
4 -5 6 -10 11 -12 16 17 18 0
4 -5 6 -10 -11 12 16 -17 -18 0
4 -5 6 -10 -11 12 -16 17 -18 0
4 -5 6 -10 -11 12 -16 -17 18 0
4 -5 6 -10 -11 12 -16 -17 -18 0
4 -5 6 -10 -11 -12 16 17 -18 0
4 -5 6 -10 -11 -12 16 -17 18 0
4 -5 6 -10 -11 -12 16 -17 -18 0
4 -5 6 -10 -11 -12 -16 17 18 0
4 -5 6 -10 -11 -12 -16 17 -18 0
4 -5 6 -10 -11 -12 -16 -17 18 0
4 -5 6 -10 -11 -12 -16 -17 -18 0
4 -5 -6 10 11 12 16 17 -18 0
4 -5 -6 10 11 12 16 -17 18 0
4 -5 -6 10 11 12 -16 17 18 0
4 -5 -6 10 11 -12 16 17 18 0
4 -5 -6 10 -11 12 16 -17 -18 0
4 -5 -6 10 -11 12 -16 17 -18 0
4 -5 -6 10 -11 12 -16 -17 18 0
4 -5 -6 10 -11 12 -16 -17 -18 0
4 -5 -6 10 -11 -12 16 17 -18 0
4 -5 -6 10 -11 -12 16 -17 18 0
4 -5 -6 10 -11 -12 16 -17 -18 0
4 -5 -6 10 -11 -12 -16 17 18 0
4 -5 -6 10 -11 -12 -16 17 -18 0
4 -5 -6 10 -11 -12 -16 -17 18 0
4 -5 -6 10 -11 -12 -16 -17 -18 0
4 -5 -6 -10 11 12 16 17 18 0
4 -5 -6 -10 -11 12 16 17 -18 0
4 -5 -6 -10 -11 12 16 -17 18 0
4 -5 -6 -10 -11 12 16 -17 -18 0
4 -5 -6 -10 -11 12 -16 17 18 0
4 -5 -6 -10 -11 12 -16 17 -18 0
4 -5 -6 -10 -11 12 -16 -17 18 0
4 -5 -6 -10 -11 12 -16 -17 -18 0
4 -5 -6 -10 -11 -12 16 17 18 0
4 -5 -6 -10 -11 -12 16 17 -18 0
4 -5 -6 -10 -11 -12 16 -17 18 0
4 -5 -6 -10 -11 -12 16 -17 -18 0
4 -5 -6 -10 -11 -12 -16 17 18 0
4 -5 -6 -10 -11 -12 -16 17 -18 0
4 -5 -6 -10 -11 -12 -16 -17 18 0
4 -5 -6 -10 -11 -12 -16 -17 -18 0
-4 5 6 10 11 12 16 -17 -18 0
-4 5 6 10 11 12 -16 17 -18 0
-4 5 6 10 11 12 -16 -17 18 0
-4 5 6 10 11 -12 16 17 -18 0
-4 5 6 10 11 -12 16 -17 18 0
-4 5 6 10 11 -12 -16 17 18 0
-4 5 6 10 -11 12 16 17 18 0
-4 5 6 10 -11 12 -16 -17 -18 0
-4 5 6 10 -11 -12 16 -17 -18 0
-4 5 6 10 -11 -12 -16 17 -18 0
-4 5 6 10 -11 -12 -16 -17 18 0
-4 5 6 10 -11 -12 -16 -17 -18 0
-4 5 6 -10 11 12 16 17 -18 0
-4 5 6 -10 11 12 16 -17 18 0
-4 5 6 -10 11 12 -16 17 18 0
-4 5 6 -10 11 -12 16 17 18 0
-4 5 6 -10 -11 12 16 -17 -18 0
-4 5 6 -10 -11 12 -16 17 -18 0
-4 5 6 -10 -11 12 -16 -17 18 0
-4 5 6 -10 -11 12 -16 -17 -18 0
-4 5 6 -10 -11 -12 16 17 -18 0
-4 5 6 -10 -11 -12 16 -17 18 0
-4 5 6 -10 -11 -12 16 -17 -18 0
-4 5 6 -10 -11 -12 -16 17 18 0
-4 5 6 -10 -11 -12 -16 17 -18 0
-4 5 6 -10 -11 -12 -16 -17 18 0
-4 5 6 -10 -11 -12 -16 -17 -18 0
-4 5 -6 10 11 12 16 17 -18 0
-4 5 -6 10 11 12 16 -17 18 0
-4 5 -6 10 11 12 -16 17 18 0
-4 5 -6 10 11 -12 16 17 18 0
-4 5 -6 10 -11 12 16 -17 -18 0
-4 5 -6 10 -11 12 -16 17 -18 0
-4 5 -6 10 -11 12 -16 -17 18 0
-4 5 -6 10 -11 12 -16 -17 -18 0
-4 5 -6 10 -11 -12 16 17 -18 0
-4 5 -6 10 -11 -12 16 -17 18 0
-4 5 -6 10 -11 -12 16 -17 -18 0
-4 5 -6 10 -11 -12 -16 17 18 0
-4 5 -6 10 -11 -12 -16 17 -18 0
-4 5 -6 10 -11 -12 -16 -17 18 0
-4 5 -6 10 -11 -12 -16 -17 -18 0
-4 5 -6 -10 11 12 16 17 18 0
-4 5 -6 -10 -11 12 16 17 -18 0
-4 5 -6 -10 -11 12 16 -17 18 0
-4 5 -6 -10 -11 12 16 -17 -18 0
-4 5 -6 -10 -11 12 -16 17 18 0
-4 5 -6 -10 -11 12 -16 17 -18 0
-4 5 -6 -10 -11 12 -16 -17 18 0
-4 5 -6 -10 -11 12 -16 -17 -18 0
-4 5 -6 -10 -11 -12 16 17 18 0
-4 5 -6 -10 -11 -12 16 17 -18 0
-4 5 -6 -10 -11 -12 16 -17 18 0
-4 5 -6 -10 -11 -12 16 -17 -18 0
-4 5 -6 -10 -11 -12 -16 17 18 0
-4 5 -6 -10 -11 -12 -16 17 -18 0
-4 5 -6 -10 -11 -12 -16 -17 18 0
-4 5 -6 -10 -11 -12 -16 -17 -18 0
-4 -5 6 10 11 12 16 17 -18 0
-4 -5 6 10 11 12 16 -17 18 0
-4 -5 6 10 11 12 -16 17 18 0
-4 -5 6 10 11 -12 16 17 18 0
-4 -5 6 10 -11 12 16 -17 -18 0
-4 -5 6 10 -11 12 -16 17 -18 0
-4 -5 6 10 -11 12 -16 -17 18 0
-4 -5 6 10 -11 12 -16 -17 -18 0
-4 -5 6 10 -11 -12 16 17 -18 0
-4 -5 6 10 -11 -12 16 -17 18 0
-4 -5 6 10 -11 -12 16 -17 -18 0
-4 -5 6 10 -11 -12 -16 17 18 0
-4 -5 6 10 -11 -12 -16 17 -18 0
-4 -5 6 10 -11 -12 -16 -17 18 0
-4 -5 6 10 -11 -12 -16 -17 -18 0
-4 -5 6 -10 11 12 16 17 18 0
-4 -5 6 -10 -11 12 16 17 -18 0
-4 -5 6 -10 -11 12 16 -17 18 0
-4 -5 6 -10 -11 12 16 -17 -18 0
-4 -5 6 -10 -11 12 -16 17 18 0
-4 -5 6 -10 -11 12 -16 17 -18 0
-4 -5 6 -10 -11 12 -16 -17 18 0
-4 -5 6 -10 -11 12 -16 -17 -18 0
-4 -5 6 -10 -11 -12 16 17 18 0
-4 -5 6 -10 -11 -12 16 17 -18 0
-4 -5 6 -10 -11 -12 16 -17 18 0
-4 -5 6 -10 -11 -12 16 -17 -18 0
-4 -5 6 -10 -11 -12 -16 17 18 0
-4 -5 6 -10 -11 -12 -16 17 -18 0
-4 -5 6 -10 -11 -12 -16 -17 18 0
-4 -5 6 -10 -11 -12 -16 -17 -18 0
-4 -5 -6 10 11 12 16 17 18 0
-4 -5 -6 10 -11 12 16 17 -18 0
-4 -5 -6 10 -11 12 16 -17 18 0
-4 -5 -6 10 -11 12 16 -17 -18 0
-4 -5 -6 10 -11 12 -16 17 18 0
-4 -5 -6 10 -11 12 -16 17 -18 0
-4 -5 -6 10 -11 12 -16 -17 18 0
-4 -5 -6 10 -11 12 -16 -17 -18 0
-4 -5 -6 10 -11 -12 16 17 18 0
-4 -5 -6 10 -11 -12 16 17 -18 0
-4 -5 -6 10 -11 -12 16 -17 18 0
-4 -5 -6 10 -11 -12 16 -17 -18 0
-4 -5 -6 10 -11 -12 -16 17 18 0
-4 -5 -6 10 -11 -12 -16 17 -18 0
-4 -5 -6 10 -11 -12 -16 -17 18 0
-4 -5 -6 10 -11 -12 -16 -17 -18 0
-4 -5 -6 -10 -11 12 16 17 18 0
-4 -5 -6 -10 -11 12 16 17 -18 0
-4 -5 -6 -10 -11 12 16 -17 18 0
-4 -5 -6 -10 -11 12 16 -17 -18 0
-4 -5 -6 -10 -11 12 -16 17 18 0
-4 -5 -6 -10 -11 12 -16 17 -18 0
-4 -5 -6 -10 -11 12 -16 -17 18 0
-4 -5 -6 -10 -11 12 -16 -17 -18 0
-4 -5 -6 -10 -11 -12 16 17 18 0
-4 -5 -6 -10 -11 -12 16 17 -18 0
-4 -5 -6 -10 -11 -12 16 -17 18 0
-4 -5 -6 -10 -11 -12 16 -17 -18 0
-4 -5 -6 -10 -11 -12 -16 17 18 0
-4 -5 -6 -10 -11 -12 -16 17 -18 0
-4 -5 -6 -10 -11 -12 -16 -17 18 0
-4 -5 -6 -10 -11 -12 -16 -17 -18 0
5 6 11 -12 17 18 0
5 6 11 -12 17 -18 0
5 6 11 -12 -17 18 0
5 6 -11 12 -17 -18 0
5 6 -11 -12 17 18 0
5 -6 11 12 -17 -18 0
5 -6 11 -12 17 18 0
5 -6 -11 12 17 -18 0
5 -6 -11 12 -17 18 0
5 -6 -11 -12 -17 -18 0
-5 6 11 12 -17 -18 0
-5 6 11 -12 17 18 0
-5 6 -11 12 17 -18 0
-5 6 -11 12 -17 18 0
-5 6 -11 -12 -17 -18 0
-5 -6 11 12 17 -18 0
-5 -6 11 12 -17 18 0
-5 -6 11 -12 -17 -18 0
-5 -6 -11 12 17 18 0
-5 -6 -11 -12 17 -18 0
-5 -6 -11 -12 -17 18 0
-5 -6 -11 -12 -17 -18 0
-6 -12 -18 0
-7 -13 -19 0
7 8 13 -14 -19 -20 0
7 8 -13 14 19 20 0
7 8 -13 14 19 -20 0
7 8 -13 14 -19 20 0
7 8 -13 -14 19 20 0
7 -8 13 14 -19 -20 0
7 -8 13 -14 19 -20 0
7 -8 13 -14 -19 20 0
7 -8 -13 14 19 20 0
7 -8 -13 -14 -19 -20 0
-7 8 13 14 -19 -20 0
-7 8 13 -14 19 -20 0
-7 8 13 -14 -19 20 0
-7 8 -13 14 19 20 0
-7 8 -13 -14 -19 -20 0
-7 -8 13 14 19 -20 0
-7 -8 13 14 -19 20 0
-7 -8 13 -14 19 20 0
-7 -8 -13 14 -19 -20 0
-7 -8 -13 -14 19 -20 0
-7 -8 -13 -14 -19 20 0
-7 -8 -13 -14 -19 -20 0
7 8 9 13 14 15 -19 -20 -21 0
7 8 9 13 14 -15 19 -20 -21 0
7 8 9 13 14 -15 -19 20 -21 0
7 8 9 13 14 -15 -19 -20 21 0
7 8 9 13 -14 15 19 20 21 0
7 8 9 13 -14 15 19 20 -21 0
7 8 9 13 -14 15 19 -20 21 0
7 8 9 13 -14 15 -19 20 21 0
7 8 9 13 -14 -15 19 20 21 0
7 8 9 13 -14 -15 -19 -20 -21 0
7 8 9 -13 14 15 19 -20 -21 0
7 8 9 -13 14 15 -19 20 -21 0
7 8 9 -13 14 15 -19 -20 21 0
7 8 9 -13 14 -15 19 20 -21 0
7 8 9 -13 14 -15 19 -20 21 0
7 8 9 -13 14 -15 -19 20 21 0
7 8 9 -13 -14 15 19 20 21 0
7 8 9 -13 -14 15 -19 -20 -21 0
7 8 9 -13 -14 -15 19 -20 -21 0
7 8 9 -13 -14 -15 -19 20 -21 0
7 8 9 -13 -14 -15 -19 -20 21 0
7 8 9 -13 -14 -15 -19 -20 -21 0
7 8 -9 13 14 15 19 -20 -21 0
7 8 -9 13 14 15 -19 20 -21 0
7 8 -9 13 14 15 -19 -20 21 0
7 8 -9 13 14 -15 19 20 -21 0
7 8 -9 13 14 -15 19 -20 21 0
7 8 -9 13 14 -15 -19 20 21 0
7 8 -9 13 -14 15 19 20 21 0
7 8 -9 13 -14 15 -19 -20 -21 0
7 8 -9 13 -14 -15 19 -20 -21 0
7 8 -9 13 -14 -15 -19 20 -21 0
7 8 -9 13 -14 -15 -19 -20 21 0
7 8 -9 13 -14 -15 -19 -20 -21 0
7 8 -9 -13 14 15 19 20 -21 0
7 8 -9 -13 14 15 19 -20 21 0
7 8 -9 -13 14 15 -19 20 21 0
7 8 -9 -13 14 -15 19 20 21 0
7 8 -9 -13 -14 15 19 -20 -21 0
7 8 -9 -13 -14 15 -19 20 -21 0
7 8 -9 -13 -14 15 -19 -20 21 0
7 8 -9 -13 -14 15 -19 -20 -21 0
7 8 -9 -13 -14 -15 19 20 -21 0
7 8 -9 -13 -14 -15 19 -20 21 0
7 8 -9 -13 -14 -15 19 -20 -21 0
7 8 -9 -13 -14 -15 -19 20 21 0
7 8 -9 -13 -14 -15 -19 20 -21 0
7 8 -9 -13 -14 -15 -19 -20 21 0
7 8 -9 -13 -14 -15 -19 -20 -21 0
7 -8 9 13 14 15 19 -20 -21 0
7 -8 9 13 14 15 -19 20 -21 0
7 -8 9 13 14 15 -19 -20 21 0
7 -8 9 13 14 -15 19 20 -21 0
7 -8 9 13 14 -15 19 -20 21 0
7 -8 9 13 14 -15 -19 20 21 0
7 -8 9 13 -14 15 19 20 21 0
7 -8 9 13 -14 15 -19 -20 -21 0
7 -8 9 13 -14 -15 19 -20 -21 0
7 -8 9 13 -14 -15 -19 20 -21 0
7 -8 9 13 -14 -15 -19 -20 21 0
7 -8 9 13 -14 -15 -19 -20 -21 0
7 -8 9 -13 14 15 19 20 -21 0
7 -8 9 -13 14 15 19 -20 21 0
7 -8 9 -13 14 15 -19 20 21 0
7 -8 9 -13 14 -15 19 20 21 0
7 -8 9 -13 -14 15 19 -20 -21 0
7 -8 9 -13 -14 15 -19 20 -21 0
7 -8 9 -13 -14 15 -19 -20 21 0
7 -8 9 -13 -14 15 -19 -20 -21 0
7 -8 9 -13 -14 -15 19 20 -21 0
7 -8 9 -13 -14 -15 19 -20 21 0
7 -8 9 -13 -14 -15 19 -20 -21 0
7 -8 9 -13 -14 -15 -19 20 21 0
7 -8 9 -13 -14 -15 -19 20 -21 0
7 -8 9 -13 -14 -15 -19 -20 21 0
7 -8 9 -13 -14 -15 -19 -20 -21 0
7 -8 -9 13 14 15 19 20 -21 0
7 -8 -9 13 14 15 19 -20 21 0
7 -8 -9 13 14 15 -19 20 21 0
7 -8 -9 13 14 -15 19 20 21 0
7 -8 -9 13 -14 15 19 -20 -21 0
7 -8 -9 13 -14 15 -19 20 -21 0
7 -8 -9 13 -14 15 -19 -20 21 0
7 -8 -9 13 -14 15 -19 -20 -21 0
7 -8 -9 13 -14 -15 19 20 -21 0
7 -8 -9 13 -14 -15 19 -20 21 0
7 -8 -9 13 -14 -15 19 -20 -21 0
7 -8 -9 13 -14 -15 -19 20 21 0
7 -8 -9 13 -14 -15 -19 20 -21 0
7 -8 -9 13 -14 -15 -19 -20 21 0
7 -8 -9 13 -14 -15 -19 -20 -21 0
7 -8 -9 -13 14 15 19 20 21 0
7 -8 -9 -13 -14 15 19 20 -21 0
7 -8 -9 -13 -14 15 19 -20 21 0
7 -8 -9 -13 -14 15 19 -20 -21 0
7 -8 -9 -13 -14 15 -19 20 21 0
7 -8 -9 -13 -14 15 -19 20 -21 0
7 -8 -9 -13 -14 15 -19 -20 21 0
7 -8 -9 -13 -14 15 -19 -20 -21 0
7 -8 -9 -13 -14 -15 19 20 21 0
7 -8 -9 -13 -14 -15 19 20 -21 0
7 -8 -9 -13 -14 -15 19 -20 21 0
7 -8 -9 -13 -14 -15 19 -20 -21 0
7 -8 -9 -13 -14 -15 -19 20 21 0
7 -8 -9 -13 -14 -15 -19 20 -21 0
7 -8 -9 -13 -14 -15 -19 -20 21 0
7 -8 -9 -13 -14 -15 -19 -20 -21 0
-7 8 9 13 14 15 19 -20 -21 0
-7 8 9 13 14 15 -19 20 -21 0
-7 8 9 13 14 15 -19 -20 21 0
-7 8 9 13 14 -15 19 20 -21 0
-7 8 9 13 14 -15 19 -20 21 0
-7 8 9 13 14 -15 -19 20 21 0
-7 8 9 13 -14 15 19 20 21 0
-7 8 9 13 -14 15 -19 -20 -21 0
-7 8 9 13 -14 -15 19 -20 -21 0
-7 8 9 13 -14 -15 -19 20 -21 0
-7 8 9 13 -14 -15 -19 -20 21 0
-7 8 9 13 -14 -15 -19 -20 -21 0
-7 8 9 -13 14 15 19 20 -21 0
-7 8 9 -13 14 15 19 -20 21 0
-7 8 9 -13 14 15 -19 20 21 0
-7 8 9 -13 14 -15 19 20 21 0
-7 8 9 -13 -14 15 19 -20 -21 0
-7 8 9 -13 -14 15 -19 20 -21 0
-7 8 9 -13 -14 15 -19 -20 21 0
-7 8 9 -13 -14 15 -19 -20 -21 0
-7 8 9 -13 -14 -15 19 20 -21 0
-7 8 9 -13 -14 -15 19 -20 21 0
-7 8 9 -13 -14 -15 19 -20 -21 0
-7 8 9 -13 -14 -15 -19 20 21 0
-7 8 9 -13 -14 -15 -19 20 -21 0
-7 8 9 -13 -14 -15 -19 -20 21 0
-7 8 9 -13 -14 -15 -19 -20 -21 0
-7 8 -9 13 14 15 19 20 -21 0
-7 8 -9 13 14 15 19 -20 21 0
-7 8 -9 13 14 15 -19 20 21 0
-7 8 -9 13 14 -15 19 20 21 0
-7 8 -9 13 -14 15 19 -20 -21 0
-7 8 -9 13 -14 15 -19 20 -21 0
-7 8 -9 13 -14 15 -19 -20 21 0
-7 8 -9 13 -14 15 -19 -20 -21 0
-7 8 -9 13 -14 -15 19 20 -21 0
-7 8 -9 13 -14 -15 19 -20 21 0
-7 8 -9 13 -14 -15 19 -20 -21 0
-7 8 -9 13 -14 -15 -19 20 21 0
-7 8 -9 13 -14 -15 -19 20 -21 0
-7 8 -9 13 -14 -15 -19 -20 21 0
-7 8 -9 13 -14 -15 -19 -20 -21 0
-7 8 -9 -13 14 15 19 20 21 0
-7 8 -9 -13 -14 15 19 20 -21 0
-7 8 -9 -13 -14 15 19 -20 21 0
-7 8 -9 -13 -14 15 19 -20 -21 0
-7 8 -9 -13 -14 15 -19 20 21 0
-7 8 -9 -13 -14 15 -19 20 -21 0
-7 8 -9 -13 -14 15 -19 -20 21 0
-7 8 -9 -13 -14 15 -19 -20 -21 0
-7 8 -9 -13 -14 -15 19 20 21 0
-7 8 -9 -13 -14 -15 19 20 -21 0
-7 8 -9 -13 -14 -15 19 -20 21 0
-7 8 -9 -13 -14 -15 19 -20 -21 0
-7 8 -9 -13 -14 -15 -19 20 21 0
-7 8 -9 -13 -14 -15 -19 20 -21 0
-7 8 -9 -13 -14 -15 -19 -20 21 0
-7 8 -9 -13 -14 -15 -19 -20 -21 0
-7 -8 9 13 14 15 19 20 -21 0
-7 -8 9 13 14 15 19 -20 21 0
-7 -8 9 13 14 15 -19 20 21 0
-7 -8 9 13 14 -15 19 20 21 0
-7 -8 9 13 -14 15 19 -20 -21 0
-7 -8 9 13 -14 15 -19 20 -21 0
-7 -8 9 13 -14 15 -19 -20 21 0
-7 -8 9 13 -14 15 -19 -20 -21 0
-7 -8 9 13 -14 -15 19 20 -21 0
-7 -8 9 13 -14 -15 19 -20 21 0
-7 -8 9 13 -14 -15 19 -20 -21 0
-7 -8 9 13 -14 -15 -19 20 21 0
-7 -8 9 13 -14 -15 -19 20 -21 0
-7 -8 9 13 -14 -15 -19 -20 21 0
-7 -8 9 13 -14 -15 -19 -20 -21 0
-7 -8 9 -13 14 15 19 20 21 0
-7 -8 9 -13 -14 15 19 20 -21 0
-7 -8 9 -13 -14 15 19 -20 21 0
-7 -8 9 -13 -14 15 19 -20 -21 0
-7 -8 9 -13 -14 15 -19 20 21 0
-7 -8 9 -13 -14 15 -19 20 -21 0
-7 -8 9 -13 -14 15 -19 -20 21 0
-7 -8 9 -13 -14 15 -19 -20 -21 0
-7 -8 9 -13 -14 -15 19 20 21 0
-7 -8 9 -13 -14 -15 19 20 -21 0
-7 -8 9 -13 -14 -15 19 -20 21 0
-7 -8 9 -13 -14 -15 19 -20 -21 0
-7 -8 9 -13 -14 -15 -19 20 21 0
-7 -8 9 -13 -14 -15 -19 20 -21 0
-7 -8 9 -13 -14 -15 -19 -20 21 0
-7 -8 9 -13 -14 -15 -19 -20 -21 0
-7 -8 -9 13 14 15 19 20 21 0
-7 -8 -9 13 -14 15 19 20 -21 0
-7 -8 -9 13 -14 15 19 -20 21 0
-7 -8 -9 13 -14 15 19 -20 -21 0
-7 -8 -9 13 -14 15 -19 20 21 0
-7 -8 -9 13 -14 15 -19 20 -21 0
-7 -8 -9 13 -14 15 -19 -20 21 0
-7 -8 -9 13 -14 15 -19 -20 -21 0
-7 -8 -9 13 -14 -15 19 20 21 0
-7 -8 -9 13 -14 -15 19 20 -21 0
-7 -8 -9 13 -14 -15 19 -20 21 0
-7 -8 -9 13 -14 -15 19 -20 -21 0
-7 -8 -9 13 -14 -15 -19 20 21 0
-7 -8 -9 13 -14 -15 -19 20 -21 0
-7 -8 -9 13 -14 -15 -19 -20 21 0
-7 -8 -9 13 -14 -15 -19 -20 -21 0
-7 -8 -9 -13 -14 15 19 20 21 0
-7 -8 -9 -13 -14 15 19 20 -21 0
-7 -8 -9 -13 -14 15 19 -20 21 0
-7 -8 -9 -13 -14 15 19 -20 -21 0
-7 -8 -9 -13 -14 15 -19 20 21 0
-7 -8 -9 -13 -14 15 -19 20 -21 0
-7 -8 -9 -13 -14 15 -19 -20 21 0
-7 -8 -9 -13 -14 15 -19 -20 -21 0
-7 -8 -9 -13 -14 -15 19 20 21 0
-7 -8 -9 -13 -14 -15 19 20 -21 0
-7 -8 -9 -13 -14 -15 19 -20 21 0
-7 -8 -9 -13 -14 -15 19 -20 -21 0
-7 -8 -9 -13 -14 -15 -19 20 21 0
-7 -8 -9 -13 -14 -15 -19 20 -21 0
-7 -8 -9 -13 -14 -15 -19 -20 21 0
-7 -8 -9 -13 -14 -15 -19 -20 -21 0
8 9 10 14 15 16 -20 -21 -22 0
8 9 10 14 15 -16 20 -21 -22 0
8 9 10 14 15 -16 -20 21 -22 0
8 9 10 14 15 -16 -20 -21 22 0
8 9 10 14 -15 16 20 21 22 0
8 9 10 14 -15 16 20 21 -22 0
8 9 10 14 -15 16 20 -21 22 0
8 9 10 14 -15 16 -20 21 22 0
8 9 10 14 -15 -16 20 21 22 0
8 9 10 14 -15 -16 -20 -21 -22 0
8 9 10 -14 15 16 20 -21 -22 0
8 9 10 -14 15 16 -20 21 -22 0
8 9 10 -14 15 16 -20 -21 22 0
8 9 10 -14 15 -16 20 21 -22 0
8 9 10 -14 15 -16 20 -21 22 0
8 9 10 -14 15 -16 -20 21 22 0
8 9 10 -14 -15 16 20 21 22 0
8 9 10 -14 -15 16 -20 -21 -22 0
8 9 10 -14 -15 -16 20 -21 -22 0
8 9 10 -14 -15 -16 -20 21 -22 0
8 9 10 -14 -15 -16 -20 -21 22 0
8 9 10 -14 -15 -16 -20 -21 -22 0
8 9 -10 14 15 16 20 -21 -22 0
8 9 -10 14 15 16 -20 21 -22 0
8 9 -10 14 15 16 -20 -21 22 0
8 9 -10 14 15 -16 20 21 -22 0
8 9 -10 14 15 -16 20 -21 22 0
8 9 -10 14 15 -16 -20 21 22 0
8 9 -10 14 -15 16 20 21 22 0
8 9 -10 14 -15 16 -20 -21 -22 0
8 9 -10 14 -15 -16 20 -21 -22 0
8 9 -10 14 -15 -16 -20 21 -22 0
8 9 -10 14 -15 -16 -20 -21 22 0
8 9 -10 14 -15 -16 -20 -21 -22 0
8 9 -10 -14 15 16 20 21 -22 0
8 9 -10 -14 15 16 20 -21 22 0
8 9 -10 -14 15 16 -20 21 22 0
8 9 -10 -14 15 -16 20 21 22 0
8 9 -10 -14 -15 16 20 -21 -22 0
8 9 -10 -14 -15 16 -20 21 -22 0
8 9 -10 -14 -15 16 -20 -21 22 0
8 9 -10 -14 -15 16 -20 -21 -22 0
8 9 -10 -14 -15 -16 20 21 -22 0
8 9 -10 -14 -15 -16 20 -21 22 0
8 9 -10 -14 -15 -16 20 -21 -22 0
8 9 -10 -14 -15 -16 -20 21 22 0
8 9 -10 -14 -15 -16 -20 21 -22 0
8 9 -10 -14 -15 -16 -20 -21 22 0
8 9 -10 -14 -15 -16 -20 -21 -22 0
8 -9 10 14 15 16 20 -21 -22 0
8 -9 10 14 15 16 -20 21 -22 0
8 -9 10 14 15 16 -20 -21 22 0
8 -9 10 14 15 -16 20 21 -22 0
8 -9 10 14 15 -16 20 -21 22 0
8 -9 10 14 15 -16 -20 21 22 0
8 -9 10 14 -15 16 20 21 22 0
8 -9 10 14 -15 16 -20 -21 -22 0
8 -9 10 14 -15 -16 20 -21 -22 0
8 -9 10 14 -15 -16 -20 21 -22 0
8 -9 10 14 -15 -16 -20 -21 22 0
8 -9 10 14 -15 -16 -20 -21 -22 0
8 -9 10 -14 15 16 20 21 -22 0
8 -9 10 -14 15 16 20 -21 22 0
8 -9 10 -14 15 16 -20 21 22 0
8 -9 10 -14 15 -16 20 21 22 0
8 -9 10 -14 -15 16 20 -21 -22 0
8 -9 10 -14 -15 16 -20 21 -22 0
8 -9 10 -14 -15 16 -20 -21 22 0
8 -9 10 -14 -15 16 -20 -21 -22 0
8 -9 10 -14 -15 -16 20 21 -22 0
8 -9 10 -14 -15 -16 20 -21 22 0
8 -9 10 -14 -15 -16 20 -21 -22 0
8 -9 10 -14 -15 -16 -20 21 22 0
8 -9 10 -14 -15 -16 -20 21 -22 0
8 -9 10 -14 -15 -16 -20 -21 22 0
8 -9 10 -14 -15 -16 -20 -21 -22 0
8 -9 -10 14 15 16 20 21 -22 0
8 -9 -10 14 15 16 20 -21 22 0
8 -9 -10 14 15 16 -20 21 22 0
8 -9 -10 14 15 -16 20 21 22 0
8 -9 -10 14 -15 16 20 -21 -22 0
8 -9 -10 14 -15 16 -20 21 -22 0
8 -9 -10 14 -15 16 -20 -21 22 0
8 -9 -10 14 -15 16 -20 -21 -22 0
8 -9 -10 14 -15 -16 20 21 -22 0
8 -9 -10 14 -15 -16 20 -21 22 0
8 -9 -10 14 -15 -16 20 -21 -22 0
8 -9 -10 14 -15 -16 -20 21 22 0
8 -9 -10 14 -15 -16 -20 21 -22 0
8 -9 -10 14 -15 -16 -20 -21 22 0
8 -9 -10 14 -15 -16 -20 -21 -22 0
8 -9 -10 -14 15 16 20 21 22 0
8 -9 -10 -14 -15 16 20 21 -22 0
8 -9 -10 -14 -15 16 20 -21 22 0
8 -9 -10 -14 -15 16 20 -21 -22 0
8 -9 -10 -14 -15 16 -20 21 22 0
8 -9 -10 -14 -15 16 -20 21 -22 0
8 -9 -10 -14 -15 16 -20 -21 22 0
8 -9 -10 -14 -15 16 -20 -21 -22 0
8 -9 -10 -14 -15 -16 20 21 22 0
8 -9 -10 -14 -15 -16 20 21 -22 0
8 -9 -10 -14 -15 -16 20 -21 22 0
8 -9 -10 -14 -15 -16 20 -21 -22 0
8 -9 -10 -14 -15 -16 -20 21 22 0
8 -9 -10 -14 -15 -16 -20 21 -22 0
8 -9 -10 -14 -15 -16 -20 -21 22 0
8 -9 -10 -14 -15 -16 -20 -21 -22 0
-8 9 10 14 15 16 20 -21 -22 0
-8 9 10 14 15 16 -20 21 -22 0
-8 9 10 14 15 16 -20 -21 22 0
-8 9 10 14 15 -16 20 21 -22 0
-8 9 10 14 15 -16 20 -21 22 0
-8 9 10 14 15 -16 -20 21 22 0
-8 9 10 14 -15 16 20 21 22 0
-8 9 10 14 -15 16 -20 -21 -22 0
-8 9 10 14 -15 -16 20 -21 -22 0
-8 9 10 14 -15 -16 -20 21 -22 0
-8 9 10 14 -15 -16 -20 -21 22 0
-8 9 10 14 -15 -16 -20 -21 -22 0
-8 9 10 -14 15 16 20 21 -22 0
-8 9 10 -14 15 16 20 -21 22 0
-8 9 10 -14 15 16 -20 21 22 0
-8 9 10 -14 15 -16 20 21 22 0
-8 9 10 -14 -15 16 20 -21 -22 0
-8 9 10 -14 -15 16 -20 21 -22 0
-8 9 10 -14 -15 16 -20 -21 22 0
-8 9 10 -14 -15 16 -20 -21 -22 0
-8 9 10 -14 -15 -16 20 21 -22 0
-8 9 10 -14 -15 -16 20 -21 22 0
-8 9 10 -14 -15 -16 20 -21 -22 0
-8 9 10 -14 -15 -16 -20 21 22 0
-8 9 10 -14 -15 -16 -20 21 -22 0
-8 9 10 -14 -15 -16 -20 -21 22 0
-8 9 10 -14 -15 -16 -20 -21 -22 0
-8 9 -10 14 15 16 20 21 -22 0
-8 9 -10 14 15 16 20 -21 22 0
-8 9 -10 14 15 16 -20 21 22 0
-8 9 -10 14 15 -16 20 21 22 0
-8 9 -10 14 -15 16 20 -21 -22 0
-8 9 -10 14 -15 16 -20 21 -22 0
-8 9 -10 14 -15 16 -20 -21 22 0
-8 9 -10 14 -15 16 -20 -21 -22 0
-8 9 -10 14 -15 -16 20 21 -22 0
-8 9 -10 14 -15 -16 20 -21 22 0
-8 9 -10 14 -15 -16 20 -21 -22 0
-8 9 -10 14 -15 -16 -20 21 22 0
-8 9 -10 14 -15 -16 -20 21 -22 0
-8 9 -10 14 -15 -16 -20 -21 22 0
-8 9 -10 14 -15 -16 -20 -21 -22 0
-8 9 -10 -14 15 16 20 21 22 0
-8 9 -10 -14 -15 16 20 21 -22 0
-8 9 -10 -14 -15 16 20 -21 22 0
-8 9 -10 -14 -15 16 20 -21 -22 0
-8 9 -10 -14 -15 16 -20 21 22 0
-8 9 -10 -14 -15 16 -20 21 -22 0
-8 9 -10 -14 -15 16 -20 -21 22 0
-8 9 -10 -14 -15 16 -20 -21 -22 0
-8 9 -10 -14 -15 -16 20 21 22 0
-8 9 -10 -14 -15 -16 20 21 -22 0
-8 9 -10 -14 -15 -16 20 -21 22 0
-8 9 -10 -14 -15 -16 20 -21 -22 0
-8 9 -10 -14 -15 -16 -20 21 22 0
-8 9 -10 -14 -15 -16 -20 21 -22 0
-8 9 -10 -14 -15 -16 -20 -21 22 0
-8 9 -10 -14 -15 -16 -20 -21 -22 0
-8 -9 10 14 15 16 20 21 -22 0
-8 -9 10 14 15 16 20 -21 22 0
-8 -9 10 14 15 16 -20 21 22 0
-8 -9 10 14 15 -16 20 21 22 0
-8 -9 10 14 -15 16 20 -21 -22 0
-8 -9 10 14 -15 16 -20 21 -22 0
-8 -9 10 14 -15 16 -20 -21 22 0
-8 -9 10 14 -15 16 -20 -21 -22 0
-8 -9 10 14 -15 -16 20 21 -22 0
-8 -9 10 14 -15 -16 20 -21 22 0
-8 -9 10 14 -15 -16 20 -21 -22 0
-8 -9 10 14 -15 -16 -20 21 22 0
-8 -9 10 14 -15 -16 -20 21 -22 0
-8 -9 10 14 -15 -16 -20 -21 22 0
-8 -9 10 14 -15 -16 -20 -21 -22 0
-8 -9 10 -14 15 16 20 21 22 0
-8 -9 10 -14 -15 16 20 21 -22 0
-8 -9 10 -14 -15 16 20 -21 22 0
-8 -9 10 -14 -15 16 20 -21 -22 0
-8 -9 10 -14 -15 16 -20 21 22 0
-8 -9 10 -14 -15 16 -20 21 -22 0
-8 -9 10 -14 -15 16 -20 -21 22 0
-8 -9 10 -14 -15 16 -20 -21 -22 0
-8 -9 10 -14 -15 -16 20 21 22 0
-8 -9 10 -14 -15 -16 20 21 -22 0
-8 -9 10 -14 -15 -16 20 -21 22 0
-8 -9 10 -14 -15 -16 20 -21 -22 0
-8 -9 10 -14 -15 -16 -20 21 22 0
-8 -9 10 -14 -15 -16 -20 21 -22 0
-8 -9 10 -14 -15 -16 -20 -21 22 0
-8 -9 10 -14 -15 -16 -20 -21 -22 0
-8 -9 -10 14 15 16 20 21 22 0
-8 -9 -10 14 -15 16 20 21 -22 0
-8 -9 -10 14 -15 16 20 -21 22 0
-8 -9 -10 14 -15 16 20 -21 -22 0
-8 -9 -10 14 -15 16 -20 21 22 0
-8 -9 -10 14 -15 16 -20 21 -22 0
-8 -9 -10 14 -15 16 -20 -21 22 0
-8 -9 -10 14 -15 16 -20 -21 -22 0
-8 -9 -10 14 -15 -16 20 21 22 0
-8 -9 -10 14 -15 -16 20 21 -22 0
-8 -9 -10 14 -15 -16 20 -21 22 0
-8 -9 -10 14 -15 -16 20 -21 -22 0
-8 -9 -10 14 -15 -16 -20 21 22 0
-8 -9 -10 14 -15 -16 -20 21 -22 0
-8 -9 -10 14 -15 -16 -20 -21 22 0
-8 -9 -10 14 -15 -16 -20 -21 -22 0
-8 -9 -10 -14 -15 16 20 21 22 0
-8 -9 -10 -14 -15 16 20 21 -22 0
-8 -9 -10 -14 -15 16 20 -21 22 0
-8 -9 -10 -14 -15 16 20 -21 -22 0
-8 -9 -10 -14 -15 16 -20 21 22 0
-8 -9 -10 -14 -15 16 -20 21 -22 0
-8 -9 -10 -14 -15 16 -20 -21 22 0
-8 -9 -10 -14 -15 16 -20 -21 -22 0
-8 -9 -10 -14 -15 -16 20 21 22 0
-8 -9 -10 -14 -15 -16 20 21 -22 0
-8 -9 -10 -14 -15 -16 20 -21 22 0
-8 -9 -10 -14 -15 -16 20 -21 -22 0
-8 -9 -10 -14 -15 -16 -20 21 22 0
-8 -9 -10 -14 -15 -16 -20 21 -22 0
-8 -9 -10 -14 -15 -16 -20 -21 22 0
-8 -9 -10 -14 -15 -16 -20 -21 -22 0
9 10 11 15 16 17 -21 -22 -23 0
9 10 11 15 16 -17 21 -22 -23 0
9 10 11 15 16 -17 -21 22 -23 0
9 10 11 15 16 -17 -21 -22 23 0
9 10 11 15 -16 17 21 22 23 0
9 10 11 15 -16 17 21 22 -23 0
9 10 11 15 -16 17 21 -22 23 0
9 10 11 15 -16 17 -21 22 23 0
9 10 11 15 -16 -17 21 22 23 0
9 10 11 15 -16 -17 -21 -22 -23 0
9 10 11 -15 16 17 21 -22 -23 0
9 10 11 -15 16 17 -21 22 -23 0
9 10 11 -15 16 17 -21 -22 23 0
9 10 11 -15 16 -17 21 22 -23 0
9 10 11 -15 16 -17 21 -22 23 0
9 10 11 -15 16 -17 -21 22 23 0
9 10 11 -15 -16 17 21 22 23 0
9 10 11 -15 -16 17 -21 -22 -23 0
9 10 11 -15 -16 -17 21 -22 -23 0
9 10 11 -15 -16 -17 -21 22 -23 0
9 10 11 -15 -16 -17 -21 -22 23 0
9 10 11 -15 -16 -17 -21 -22 -23 0
9 10 -11 15 16 17 21 -22 -23 0
9 10 -11 15 16 17 -21 22 -23 0
9 10 -11 15 16 17 -21 -22 23 0
9 10 -11 15 16 -17 21 22 -23 0
9 10 -11 15 16 -17 21 -22 23 0
9 10 -11 15 16 -17 -21 22 23 0
9 10 -11 15 -16 17 21 22 23 0
9 10 -11 15 -16 17 -21 -22 -23 0
9 10 -11 15 -16 -17 21 -22 -23 0
9 10 -11 15 -16 -17 -21 22 -23 0
9 10 -11 15 -16 -17 -21 -22 23 0
9 10 -11 15 -16 -17 -21 -22 -23 0
9 10 -11 -15 16 17 21 22 -23 0
9 10 -11 -15 16 17 21 -22 23 0
9 10 -11 -15 16 17 -21 22 23 0
9 10 -11 -15 16 -17 21 22 23 0
9 10 -11 -15 -16 17 21 -22 -23 0
9 10 -11 -15 -16 17 -21 22 -23 0
9 10 -11 -15 -16 17 -21 -22 23 0
9 10 -11 -15 -16 17 -21 -22 -23 0
9 10 -11 -15 -16 -17 21 22 -23 0
9 10 -11 -15 -16 -17 21 -22 23 0
9 10 -11 -15 -16 -17 21 -22 -23 0
9 10 -11 -15 -16 -17 -21 22 23 0
9 10 -11 -15 -16 -17 -21 22 -23 0
9 10 -11 -15 -16 -17 -21 -22 23 0
9 10 -11 -15 -16 -17 -21 -22 -23 0
9 -10 11 15 16 17 21 -22 -23 0
9 -10 11 15 16 17 -21 22 -23 0
9 -10 11 15 16 17 -21 -22 23 0
9 -10 11 15 16 -17 21 22 -23 0
9 -10 11 15 16 -17 21 -22 23 0
9 -10 11 15 16 -17 -21 22 23 0
9 -10 11 15 -16 17 21 22 23 0
9 -10 11 15 -16 17 -21 -22 -23 0
9 -10 11 15 -16 -17 21 -22 -23 0
9 -10 11 15 -16 -17 -21 22 -23 0
9 -10 11 15 -16 -17 -21 -22 23 0
9 -10 11 15 -16 -17 -21 -22 -23 0
9 -10 11 -15 16 17 21 22 -23 0
9 -10 11 -15 16 17 21 -22 23 0
9 -10 11 -15 16 17 -21 22 23 0
9 -10 11 -15 16 -17 21 22 23 0
9 -10 11 -15 -16 17 21 -22 -23 0
9 -10 11 -15 -16 17 -21 22 -23 0
9 -10 11 -15 -16 17 -21 -22 23 0
9 -10 11 -15 -16 17 -21 -22 -23 0
9 -10 11 -15 -16 -17 21 22 -23 0
9 -10 11 -15 -16 -17 21 -22 23 0
9 -10 11 -15 -16 -17 21 -22 -23 0
9 -10 11 -15 -16 -17 -21 22 23 0
9 -10 11 -15 -16 -17 -21 22 -23 0
9 -10 11 -15 -16 -17 -21 -22 23 0
9 -10 11 -15 -16 -17 -21 -22 -23 0
9 -10 -11 15 16 17 21 22 -23 0
9 -10 -11 15 16 17 21 -22 23 0
9 -10 -11 15 16 17 -21 22 23 0
9 -10 -11 15 16 -17 21 22 23 0
9 -10 -11 15 -16 17 21 -22 -23 0
9 -10 -11 15 -16 17 -21 22 -23 0
9 -10 -11 15 -16 17 -21 -22 23 0
9 -10 -11 15 -16 17 -21 -22 -23 0
9 -10 -11 15 -16 -17 21 22 -23 0
9 -10 -11 15 -16 -17 21 -22 23 0
9 -10 -11 15 -16 -17 21 -22 -23 0
9 -10 -11 15 -16 -17 -21 22 23 0
9 -10 -11 15 -16 -17 -21 22 -23 0
9 -10 -11 15 -16 -17 -21 -22 23 0
9 -10 -11 15 -16 -17 -21 -22 -23 0
9 -10 -11 -15 16 17 21 22 23 0
9 -10 -11 -15 -16 17 21 22 -23 0
9 -10 -11 -15 -16 17 21 -22 23 0
9 -10 -11 -15 -16 17 21 -22 -23 0
9 -10 -11 -15 -16 17 -21 22 23 0
9 -10 -11 -15 -16 17 -21 22 -23 0
9 -10 -11 -15 -16 17 -21 -22 23 0
9 -10 -11 -15 -16 17 -21 -22 -23 0
9 -10 -11 -15 -16 -17 21 22 23 0
9 -10 -11 -15 -16 -17 21 22 -23 0
9 -10 -11 -15 -16 -17 21 -22 23 0
9 -10 -11 -15 -16 -17 21 -22 -23 0
9 -10 -11 -15 -16 -17 -21 22 23 0
9 -10 -11 -15 -16 -17 -21 22 -23 0
9 -10 -11 -15 -16 -17 -21 -22 23 0
9 -10 -11 -15 -16 -17 -21 -22 -23 0
-9 10 11 15 16 17 21 -22 -23 0
-9 10 11 15 16 17 -21 22 -23 0
-9 10 11 15 16 17 -21 -22 23 0
-9 10 11 15 16 -17 21 22 -23 0
-9 10 11 15 16 -17 21 -22 23 0
-9 10 11 15 16 -17 -21 22 23 0
-9 10 11 15 -16 17 21 22 23 0
-9 10 11 15 -16 17 -21 -22 -23 0
-9 10 11 15 -16 -17 21 -22 -23 0
-9 10 11 15 -16 -17 -21 22 -23 0
-9 10 11 15 -16 -17 -21 -22 23 0
-9 10 11 15 -16 -17 -21 -22 -23 0
-9 10 11 -15 16 17 21 22 -23 0
-9 10 11 -15 16 17 21 -22 23 0
-9 10 11 -15 16 17 -21 22 23 0
-9 10 11 -15 16 -17 21 22 23 0
-9 10 11 -15 -16 17 21 -22 -23 0
-9 10 11 -15 -16 17 -21 22 -23 0
-9 10 11 -15 -16 17 -21 -22 23 0
-9 10 11 -15 -16 17 -21 -22 -23 0
-9 10 11 -15 -16 -17 21 22 -23 0
-9 10 11 -15 -16 -17 21 -22 23 0
-9 10 11 -15 -16 -17 21 -22 -23 0
-9 10 11 -15 -16 -17 -21 22 23 0
-9 10 11 -15 -16 -17 -21 22 -23 0
-9 10 11 -15 -16 -17 -21 -22 23 0
-9 10 11 -15 -16 -17 -21 -22 -23 0
-9 10 -11 15 16 17 21 22 -23 0
-9 10 -11 15 16 17 21 -22 23 0
-9 10 -11 15 16 17 -21 22 23 0
-9 10 -11 15 16 -17 21 22 23 0
-9 10 -11 15 -16 17 21 -22 -23 0
-9 10 -11 15 -16 17 -21 22 -23 0
-9 10 -11 15 -16 17 -21 -22 23 0
-9 10 -11 15 -16 17 -21 -22 -23 0
-9 10 -11 15 -16 -17 21 22 -23 0
-9 10 -11 15 -16 -17 21 -22 23 0
-9 10 -11 15 -16 -17 21 -22 -23 0
-9 10 -11 15 -16 -17 -21 22 23 0
-9 10 -11 15 -16 -17 -21 22 -23 0
-9 10 -11 15 -16 -17 -21 -22 23 0
-9 10 -11 15 -16 -17 -21 -22 -23 0
-9 10 -11 -15 16 17 21 22 23 0
-9 10 -11 -15 -16 17 21 22 -23 0
-9 10 -11 -15 -16 17 21 -22 23 0
-9 10 -11 -15 -16 17 21 -22 -23 0
-9 10 -11 -15 -16 17 -21 22 23 0
-9 10 -11 -15 -16 17 -21 22 -23 0
-9 10 -11 -15 -16 17 -21 -22 23 0
-9 10 -11 -15 -16 17 -21 -22 -23 0
-9 10 -11 -15 -16 -17 21 22 23 0
-9 10 -11 -15 -16 -17 21 22 -23 0
-9 10 -11 -15 -16 -17 21 -22 23 0
-9 10 -11 -15 -16 -17 21 -22 -23 0
-9 10 -11 -15 -16 -17 -21 22 23 0
-9 10 -11 -15 -16 -17 -21 22 -23 0
-9 10 -11 -15 -16 -17 -21 -22 23 0
-9 10 -11 -15 -16 -17 -21 -22 -23 0
-9 -10 11 15 16 17 21 22 -23 0
-9 -10 11 15 16 17 21 -22 23 0
-9 -10 11 15 16 17 -21 22 23 0
-9 -10 11 15 16 -17 21 22 23 0
-9 -10 11 15 -16 17 21 -22 -23 0
-9 -10 11 15 -16 17 -21 22 -23 0
-9 -10 11 15 -16 17 -21 -22 23 0
-9 -10 11 15 -16 17 -21 -22 -23 0
-9 -10 11 15 -16 -17 21 22 -23 0
-9 -10 11 15 -16 -17 21 -22 23 0
-9 -10 11 15 -16 -17 21 -22 -23 0
-9 -10 11 15 -16 -17 -21 22 23 0
-9 -10 11 15 -16 -17 -21 22 -23 0
-9 -10 11 15 -16 -17 -21 -22 23 0
-9 -10 11 15 -16 -17 -21 -22 -23 0
-9 -10 11 -15 16 17 21 22 23 0
-9 -10 11 -15 -16 17 21 22 -23 0
-9 -10 11 -15 -16 17 21 -22 23 0
-9 -10 11 -15 -16 17 21 -22 -23 0
-9 -10 11 -15 -16 17 -21 22 23 0
-9 -10 11 -15 -16 17 -21 22 -23 0
-9 -10 11 -15 -16 17 -21 -22 23 0
-9 -10 11 -15 -16 17 -21 -22 -23 0
-9 -10 11 -15 -16 -17 21 22 23 0
-9 -10 11 -15 -16 -17 21 22 -23 0
-9 -10 11 -15 -16 -17 21 -22 23 0
-9 -10 11 -15 -16 -17 21 -22 -23 0
-9 -10 11 -15 -16 -17 -21 22 23 0
-9 -10 11 -15 -16 -17 -21 22 -23 0
-9 -10 11 -15 -16 -17 -21 -22 23 0
-9 -10 11 -15 -16 -17 -21 -22 -23 0
-9 -10 -11 15 16 17 21 22 23 0
-9 -10 -11 15 -16 17 21 22 -23 0
-9 -10 -11 15 -16 17 21 -22 23 0
-9 -10 -11 15 -16 17 21 -22 -23 0
-9 -10 -11 15 -16 17 -21 22 23 0
-9 -10 -11 15 -16 17 -21 22 -23 0
-9 -10 -11 15 -16 17 -21 -22 23 0
-9 -10 -11 15 -16 17 -21 -22 -23 0
-9 -10 -11 15 -16 -17 21 22 23 0
-9 -10 -11 15 -16 -17 21 22 -23 0
-9 -10 -11 15 -16 -17 21 -22 23 0
-9 -10 -11 15 -16 -17 21 -22 -23 0
-9 -10 -11 15 -16 -17 -21 22 23 0
-9 -10 -11 15 -16 -17 -21 22 -23 0
-9 -10 -11 15 -16 -17 -21 -22 23 0
-9 -10 -11 15 -16 -17 -21 -22 -23 0
-9 -10 -11 -15 -16 17 21 22 23 0
-9 -10 -11 -15 -16 17 21 22 -23 0
-9 -10 -11 -15 -16 17 21 -22 23 0
-9 -10 -11 -15 -16 17 21 -22 -23 0
-9 -10 -11 -15 -16 17 -21 22 23 0
-9 -10 -11 -15 -16 17 -21 22 -23 0
-9 -10 -11 -15 -16 17 -21 -22 23 0
-9 -10 -11 -15 -16 17 -21 -22 -23 0
-9 -10 -11 -15 -16 -17 21 22 23 0
-9 -10 -11 -15 -16 -17 21 22 -23 0
-9 -10 -11 -15 -16 -17 21 -22 23 0
-9 -10 -11 -15 -16 -17 21 -22 -23 0
-9 -10 -11 -15 -16 -17 -21 22 23 0
-9 -10 -11 -15 -16 -17 -21 22 -23 0
-9 -10 -11 -15 -16 -17 -21 -22 23 0
-9 -10 -11 -15 -16 -17 -21 -22 -23 0
10 11 12 16 17 18 -22 -23 -24 0
10 11 12 16 17 -18 22 -23 -24 0
10 11 12 16 17 -18 -22 23 -24 0
10 11 12 16 17 -18 -22 -23 24 0
10 11 12 16 -17 18 22 23 24 0
10 11 12 16 -17 18 22 23 -24 0
10 11 12 16 -17 18 22 -23 24 0
10 11 12 16 -17 18 -22 23 24 0
10 11 12 16 -17 -18 22 23 24 0
10 11 12 16 -17 -18 -22 -23 -24 0
10 11 12 -16 17 18 22 -23 -24 0
10 11 12 -16 17 18 -22 23 -24 0
10 11 12 -16 17 18 -22 -23 24 0
10 11 12 -16 17 -18 22 23 -24 0
10 11 12 -16 17 -18 22 -23 24 0
10 11 12 -16 17 -18 -22 23 24 0
10 11 12 -16 -17 18 22 23 24 0
10 11 12 -16 -17 18 -22 -23 -24 0
10 11 12 -16 -17 -18 22 -23 -24 0
10 11 12 -16 -17 -18 -22 23 -24 0
10 11 12 -16 -17 -18 -22 -23 24 0
10 11 12 -16 -17 -18 -22 -23 -24 0
10 11 -12 16 17 18 22 -23 -24 0
10 11 -12 16 17 18 -22 23 -24 0
10 11 -12 16 17 18 -22 -23 24 0
10 11 -12 16 17 -18 22 23 -24 0
10 11 -12 16 17 -18 22 -23 24 0
10 11 -12 16 17 -18 -22 23 24 0
10 11 -12 16 -17 18 22 23 24 0
10 11 -12 16 -17 18 -22 -23 -24 0
10 11 -12 16 -17 -18 22 -23 -24 0
10 11 -12 16 -17 -18 -22 23 -24 0
10 11 -12 16 -17 -18 -22 -23 24 0
10 11 -12 16 -17 -18 -22 -23 -24 0
10 11 -12 -16 17 18 22 23 -24 0
10 11 -12 -16 17 18 22 -23 24 0
10 11 -12 -16 17 18 -22 23 24 0
10 11 -12 -16 17 -18 22 23 24 0
10 11 -12 -16 -17 18 22 -23 -24 0
10 11 -12 -16 -17 18 -22 23 -24 0
10 11 -12 -16 -17 18 -22 -23 24 0
10 11 -12 -16 -17 18 -22 -23 -24 0
10 11 -12 -16 -17 -18 22 23 -24 0
10 11 -12 -16 -17 -18 22 -23 24 0
10 11 -12 -16 -17 -18 22 -23 -24 0
10 11 -12 -16 -17 -18 -22 23 24 0
10 11 -12 -16 -17 -18 -22 23 -24 0
10 11 -12 -16 -17 -18 -22 -23 24 0
10 11 -12 -16 -17 -18 -22 -23 -24 0
10 -11 12 16 17 18 22 -23 -24 0
10 -11 12 16 17 18 -22 23 -24 0
10 -11 12 16 17 18 -22 -23 24 0
10 -11 12 16 17 -18 22 23 -24 0
10 -11 12 16 17 -18 22 -23 24 0
10 -11 12 16 17 -18 -22 23 24 0
10 -11 12 16 -17 18 22 23 24 0
10 -11 12 16 -17 18 -22 -23 -24 0
10 -11 12 16 -17 -18 22 -23 -24 0
10 -11 12 16 -17 -18 -22 23 -24 0
10 -11 12 16 -17 -18 -22 -23 24 0
10 -11 12 16 -17 -18 -22 -23 -24 0
10 -11 12 -16 17 18 22 23 -24 0
10 -11 12 -16 17 18 22 -23 24 0
10 -11 12 -16 17 18 -22 23 24 0
10 -11 12 -16 17 -18 22 23 24 0
10 -11 12 -16 -17 18 22 -23 -24 0
10 -11 12 -16 -17 18 -22 23 -24 0
10 -11 12 -16 -17 18 -22 -23 24 0
10 -11 12 -16 -17 18 -22 -23 -24 0
10 -11 12 -16 -17 -18 22 23 -24 0
10 -11 12 -16 -17 -18 22 -23 24 0
10 -11 12 -16 -17 -18 22 -23 -24 0
10 -11 12 -16 -17 -18 -22 23 24 0
10 -11 12 -16 -17 -18 -22 23 -24 0
10 -11 12 -16 -17 -18 -22 -23 24 0
10 -11 12 -16 -17 -18 -22 -23 -24 0
10 -11 -12 16 17 18 22 23 -24 0
10 -11 -12 16 17 18 22 -23 24 0
10 -11 -12 16 17 18 -22 23 24 0
10 -11 -12 16 17 -18 22 23 24 0
10 -11 -12 16 -17 18 22 -23 -24 0
10 -11 -12 16 -17 18 -22 23 -24 0
10 -11 -12 16 -17 18 -22 -23 24 0
10 -11 -12 16 -17 18 -22 -23 -24 0
10 -11 -12 16 -17 -18 22 23 -24 0
10 -11 -12 16 -17 -18 22 -23 24 0
10 -11 -12 16 -17 -18 22 -23 -24 0
10 -11 -12 16 -17 -18 -22 23 24 0
10 -11 -12 16 -17 -18 -22 23 -24 0
10 -11 -12 16 -17 -18 -22 -23 24 0
10 -11 -12 16 -17 -18 -22 -23 -24 0
10 -11 -12 -16 17 18 22 23 24 0
10 -11 -12 -16 -17 18 22 23 -24 0
10 -11 -12 -16 -17 18 22 -23 24 0
10 -11 -12 -16 -17 18 22 -23 -24 0
10 -11 -12 -16 -17 18 -22 23 24 0
10 -11 -12 -16 -17 18 -22 23 -24 0
10 -11 -12 -16 -17 18 -22 -23 24 0
10 -11 -12 -16 -17 18 -22 -23 -24 0
10 -11 -12 -16 -17 -18 22 23 24 0
10 -11 -12 -16 -17 -18 22 23 -24 0
10 -11 -12 -16 -17 -18 22 -23 24 0
10 -11 -12 -16 -17 -18 22 -23 -24 0
10 -11 -12 -16 -17 -18 -22 23 24 0
10 -11 -12 -16 -17 -18 -22 23 -24 0
10 -11 -12 -16 -17 -18 -22 -23 24 0
10 -11 -12 -16 -17 -18 -22 -23 -24 0
-10 11 12 16 17 18 22 -23 -24 0
-10 11 12 16 17 18 -22 23 -24 0
-10 11 12 16 17 18 -22 -23 24 0
-10 11 12 16 17 -18 22 23 -24 0
-10 11 12 16 17 -18 22 -23 24 0
-10 11 12 16 17 -18 -22 23 24 0
-10 11 12 16 -17 18 22 23 24 0
-10 11 12 16 -17 18 -22 -23 -24 0
-10 11 12 16 -17 -18 22 -23 -24 0
-10 11 12 16 -17 -18 -22 23 -24 0
-10 11 12 16 -17 -18 -22 -23 24 0
-10 11 12 16 -17 -18 -22 -23 -24 0
-10 11 12 -16 17 18 22 23 -24 0
-10 11 12 -16 17 18 22 -23 24 0
-10 11 12 -16 17 18 -22 23 24 0
-10 11 12 -16 17 -18 22 23 24 0
-10 11 12 -16 -17 18 22 -23 -24 0
-10 11 12 -16 -17 18 -22 23 -24 0
-10 11 12 -16 -17 18 -22 -23 24 0
-10 11 12 -16 -17 18 -22 -23 -24 0
-10 11 12 -16 -17 -18 22 23 -24 0
-10 11 12 -16 -17 -18 22 -23 24 0
-10 11 12 -16 -17 -18 22 -23 -24 0
-10 11 12 -16 -17 -18 -22 23 24 0
-10 11 12 -16 -17 -18 -22 23 -24 0
-10 11 12 -16 -17 -18 -22 -23 24 0
-10 11 12 -16 -17 -18 -22 -23 -24 0
-10 11 -12 16 17 18 22 23 -24 0
-10 11 -12 16 17 18 22 -23 24 0
-10 11 -12 16 17 18 -22 23 24 0
-10 11 -12 16 17 -18 22 23 24 0
-10 11 -12 16 -17 18 22 -23 -24 0
-10 11 -12 16 -17 18 -22 23 -24 0
-10 11 -12 16 -17 18 -22 -23 24 0
-10 11 -12 16 -17 18 -22 -23 -24 0
-10 11 -12 16 -17 -18 22 23 -24 0
-10 11 -12 16 -17 -18 22 -23 24 0
-10 11 -12 16 -17 -18 22 -23 -24 0
-10 11 -12 16 -17 -18 -22 23 24 0
-10 11 -12 16 -17 -18 -22 23 -24 0
-10 11 -12 16 -17 -18 -22 -23 24 0
-10 11 -12 16 -17 -18 -22 -23 -24 0
-10 11 -12 -16 17 18 22 23 24 0
-10 11 -12 -16 -17 18 22 23 -24 0
-10 11 -12 -16 -17 18 22 -23 24 0
-10 11 -12 -16 -17 18 22 -23 -24 0
-10 11 -12 -16 -17 18 -22 23 24 0
-10 11 -12 -16 -17 18 -22 23 -24 0
-10 11 -12 -16 -17 18 -22 -23 24 0
-10 11 -12 -16 -17 18 -22 -23 -24 0
-10 11 -12 -16 -17 -18 22 23 24 0
-10 11 -12 -16 -17 -18 22 23 -24 0
-10 11 -12 -16 -17 -18 22 -23 24 0
-10 11 -12 -16 -17 -18 22 -23 -24 0
-10 11 -12 -16 -17 -18 -22 23 24 0
-10 11 -12 -16 -17 -18 -22 23 -24 0
-10 11 -12 -16 -17 -18 -22 -23 24 0
-10 11 -12 -16 -17 -18 -22 -23 -24 0
-10 -11 12 16 17 18 22 23 -24 0
-10 -11 12 16 17 18 22 -23 24 0
-10 -11 12 16 17 18 -22 23 24 0
-10 -11 12 16 17 -18 22 23 24 0
-10 -11 12 16 -17 18 22 -23 -24 0
-10 -11 12 16 -17 18 -22 23 -24 0
-10 -11 12 16 -17 18 -22 -23 24 0
-10 -11 12 16 -17 18 -22 -23 -24 0
-10 -11 12 16 -17 -18 22 23 -24 0
-10 -11 12 16 -17 -18 22 -23 24 0
-10 -11 12 16 -17 -18 22 -23 -24 0
-10 -11 12 16 -17 -18 -22 23 24 0
-10 -11 12 16 -17 -18 -22 23 -24 0
-10 -11 12 16 -17 -18 -22 -23 24 0
-10 -11 12 16 -17 -18 -22 -23 -24 0
-10 -11 12 -16 17 18 22 23 24 0
-10 -11 12 -16 -17 18 22 23 -24 0
-10 -11 12 -16 -17 18 22 -23 24 0
-10 -11 12 -16 -17 18 22 -23 -24 0
-10 -11 12 -16 -17 18 -22 23 24 0
-10 -11 12 -16 -17 18 -22 23 -24 0
-10 -11 12 -16 -17 18 -22 -23 24 0
-10 -11 12 -16 -17 18 -22 -23 -24 0
-10 -11 12 -16 -17 -18 22 23 24 0
-10 -11 12 -16 -17 -18 22 23 -24 0
-10 -11 12 -16 -17 -18 22 -23 24 0
-10 -11 12 -16 -17 -18 22 -23 -24 0
-10 -11 12 -16 -17 -18 -22 23 24 0
-10 -11 12 -16 -17 -18 -22 23 -24 0
-10 -11 12 -16 -17 -18 -22 -23 24 0
-10 -11 12 -16 -17 -18 -22 -23 -24 0
-10 -11 -12 16 17 18 22 23 24 0
-10 -11 -12 16 -17 18 22 23 -24 0
-10 -11 -12 16 -17 18 22 -23 24 0
-10 -11 -12 16 -17 18 22 -23 -24 0
-10 -11 -12 16 -17 18 -22 23 24 0
-10 -11 -12 16 -17 18 -22 23 -24 0
-10 -11 -12 16 -17 18 -22 -23 24 0
-10 -11 -12 16 -17 18 -22 -23 -24 0
-10 -11 -12 16 -17 -18 22 23 24 0
-10 -11 -12 16 -17 -18 22 23 -24 0
-10 -11 -12 16 -17 -18 22 -23 24 0
-10 -11 -12 16 -17 -18 22 -23 -24 0
-10 -11 -12 16 -17 -18 -22 23 24 0
-10 -11 -12 16 -17 -18 -22 23 -24 0
-10 -11 -12 16 -17 -18 -22 -23 24 0
-10 -11 -12 16 -17 -18 -22 -23 -24 0
-10 -11 -12 -16 -17 18 22 23 24 0
-10 -11 -12 -16 -17 18 22 23 -24 0
-10 -11 -12 -16 -17 18 22 -23 24 0
-10 -11 -12 -16 -17 18 22 -23 -24 0
-10 -11 -12 -16 -17 18 -22 23 24 0
-10 -11 -12 -16 -17 18 -22 23 -24 0
-10 -11 -12 -16 -17 18 -22 -23 24 0
-10 -11 -12 -16 -17 18 -22 -23 -24 0
-10 -11 -12 -16 -17 -18 22 23 24 0
-10 -11 -12 -16 -17 -18 22 23 -24 0
-10 -11 -12 -16 -17 -18 22 -23 24 0
-10 -11 -12 -16 -17 -18 22 -23 -24 0
-10 -11 -12 -16 -17 -18 -22 23 24 0
-10 -11 -12 -16 -17 -18 -22 23 -24 0
-10 -11 -12 -16 -17 -18 -22 -23 24 0
-10 -11 -12 -16 -17 -18 -22 -23 -24 0
11 12 17 -18 23 24 0
11 12 17 -18 23 -24 0
11 12 17 -18 -23 24 0
11 12 -17 18 -23 -24 0
11 12 -17 -18 23 24 0
11 -12 17 18 -23 -24 0
11 -12 17 -18 23 24 0
11 -12 -17 18 23 -24 0
11 -12 -17 18 -23 24 0
11 -12 -17 -18 -23 -24 0
-11 12 17 18 -23 -24 0
-11 12 17 -18 23 24 0
-11 12 -17 18 23 -24 0
-11 12 -17 18 -23 24 0
-11 12 -17 -18 -23 -24 0
-11 -12 17 18 23 -24 0
-11 -12 17 18 -23 24 0
-11 -12 17 -18 -23 -24 0
-11 -12 -17 18 23 24 0
-11 -12 -17 -18 23 -24 0
-11 -12 -17 -18 -23 24 0
-11 -12 -17 -18 -23 -24 0
-12 -18 -24 0
-13 -19 -25 0
13 14 19 -20 -25 -26 0
13 14 -19 20 25 26 0
13 14 -19 20 25 -26 0
13 14 -19 20 -25 26 0
13 14 -19 -20 25 26 0
13 -14 19 20 -25 -26 0
13 -14 19 -20 25 -26 0
13 -14 19 -20 -25 26 0
13 -14 -19 20 25 26 0
13 -14 -19 -20 -25 -26 0
-13 14 19 20 -25 -26 0
-13 14 19 -20 25 -26 0
-13 14 19 -20 -25 26 0
-13 14 -19 20 25 26 0
-13 14 -19 -20 -25 -26 0
-13 -14 19 20 25 -26 0
-13 -14 19 20 -25 26 0
-13 -14 19 -20 25 26 0
-13 -14 -19 20 -25 -26 0
-13 -14 -19 -20 25 -26 0
-13 -14 -19 -20 -25 26 0
-13 -14 -19 -20 -25 -26 0
13 14 15 19 20 21 -25 -26 -27 0
13 14 15 19 20 -21 25 -26 -27 0
13 14 15 19 20 -21 -25 26 -27 0
13 14 15 19 20 -21 -25 -26 27 0
13 14 15 19 -20 21 25 26 27 0
13 14 15 19 -20 21 25 26 -27 0
13 14 15 19 -20 21 25 -26 27 0
13 14 15 19 -20 21 -25 26 27 0
13 14 15 19 -20 -21 25 26 27 0
13 14 15 19 -20 -21 -25 -26 -27 0
13 14 15 -19 20 21 25 -26 -27 0
13 14 15 -19 20 21 -25 26 -27 0
13 14 15 -19 20 21 -25 -26 27 0
13 14 15 -19 20 -21 25 26 -27 0
13 14 15 -19 20 -21 25 -26 27 0
13 14 15 -19 20 -21 -25 26 27 0
13 14 15 -19 -20 21 25 26 27 0
13 14 15 -19 -20 21 -25 -26 -27 0
13 14 15 -19 -20 -21 25 -26 -27 0
13 14 15 -19 -20 -21 -25 26 -27 0
13 14 15 -19 -20 -21 -25 -26 27 0
13 14 15 -19 -20 -21 -25 -26 -27 0
13 14 -15 19 20 21 25 -26 -27 0
13 14 -15 19 20 21 -25 26 -27 0
13 14 -15 19 20 21 -25 -26 27 0
13 14 -15 19 20 -21 25 26 -27 0
13 14 -15 19 20 -21 25 -26 27 0
13 14 -15 19 20 -21 -25 26 27 0
13 14 -15 19 -20 21 25 26 27 0
13 14 -15 19 -20 21 -25 -26 -27 0
13 14 -15 19 -20 -21 25 -26 -27 0
13 14 -15 19 -20 -21 -25 26 -27 0
13 14 -15 19 -20 -21 -25 -26 27 0
13 14 -15 19 -20 -21 -25 -26 -27 0
13 14 -15 -19 20 21 25 26 -27 0
13 14 -15 -19 20 21 25 -26 27 0
13 14 -15 -19 20 21 -25 26 27 0
13 14 -15 -19 20 -21 25 26 27 0
13 14 -15 -19 -20 21 25 -26 -27 0
13 14 -15 -19 -20 21 -25 26 -27 0
13 14 -15 -19 -20 21 -25 -26 27 0
13 14 -15 -19 -20 21 -25 -26 -27 0
13 14 -15 -19 -20 -21 25 26 -27 0
13 14 -15 -19 -20 -21 25 -26 27 0
13 14 -15 -19 -20 -21 25 -26 -27 0
13 14 -15 -19 -20 -21 -25 26 27 0
13 14 -15 -19 -20 -21 -25 26 -27 0
13 14 -15 -19 -20 -21 -25 -26 27 0
13 14 -15 -19 -20 -21 -25 -26 -27 0
13 -14 15 19 20 21 25 -26 -27 0
13 -14 15 19 20 21 -25 26 -27 0
13 -14 15 19 20 21 -25 -26 27 0
13 -14 15 19 20 -21 25 26 -27 0
13 -14 15 19 20 -21 25 -26 27 0
13 -14 15 19 20 -21 -25 26 27 0
13 -14 15 19 -20 21 25 26 27 0
13 -14 15 19 -20 21 -25 -26 -27 0
13 -14 15 19 -20 -21 25 -26 -27 0
13 -14 15 19 -20 -21 -25 26 -27 0
13 -14 15 19 -20 -21 -25 -26 27 0
13 -14 15 19 -20 -21 -25 -26 -27 0
13 -14 15 -19 20 21 25 26 -27 0
13 -14 15 -19 20 21 25 -26 27 0
13 -14 15 -19 20 21 -25 26 27 0
13 -14 15 -19 20 -21 25 26 27 0
13 -14 15 -19 -20 21 25 -26 -27 0
13 -14 15 -19 -20 21 -25 26 -27 0
13 -14 15 -19 -20 21 -25 -26 27 0
13 -14 15 -19 -20 21 -25 -26 -27 0
13 -14 15 -19 -20 -21 25 26 -27 0
13 -14 15 -19 -20 -21 25 -26 27 0
13 -14 15 -19 -20 -21 25 -26 -27 0
13 -14 15 -19 -20 -21 -25 26 27 0
13 -14 15 -19 -20 -21 -25 26 -27 0
13 -14 15 -19 -20 -21 -25 -26 27 0
13 -14 15 -19 -20 -21 -25 -26 -27 0
13 -14 -15 19 20 21 25 26 -27 0
13 -14 -15 19 20 21 25 -26 27 0
13 -14 -15 19 20 21 -25 26 27 0
13 -14 -15 19 20 -21 25 26 27 0
13 -14 -15 19 -20 21 25 -26 -27 0
13 -14 -15 19 -20 21 -25 26 -27 0
13 -14 -15 19 -20 21 -25 -26 27 0
13 -14 -15 19 -20 21 -25 -26 -27 0
13 -14 -15 19 -20 -21 25 26 -27 0
13 -14 -15 19 -20 -21 25 -26 27 0
13 -14 -15 19 -20 -21 25 -26 -27 0
13 -14 -15 19 -20 -21 -25 26 27 0
13 -14 -15 19 -20 -21 -25 26 -27 0
13 -14 -15 19 -20 -21 -25 -26 27 0
13 -14 -15 19 -20 -21 -25 -26 -27 0
13 -14 -15 -19 20 21 25 26 27 0
13 -14 -15 -19 -20 21 25 26 -27 0
13 -14 -15 -19 -20 21 25 -26 27 0
13 -14 -15 -19 -20 21 25 -26 -27 0
13 -14 -15 -19 -20 21 -25 26 27 0
13 -14 -15 -19 -20 21 -25 26 -27 0
13 -14 -15 -19 -20 21 -25 -26 27 0
13 -14 -15 -19 -20 21 -25 -26 -27 0
13 -14 -15 -19 -20 -21 25 26 27 0
13 -14 -15 -19 -20 -21 25 26 -27 0
13 -14 -15 -19 -20 -21 25 -26 27 0
13 -14 -15 -19 -20 -21 25 -26 -27 0
13 -14 -15 -19 -20 -21 -25 26 27 0
13 -14 -15 -19 -20 -21 -25 26 -27 0
13 -14 -15 -19 -20 -21 -25 -26 27 0
13 -14 -15 -19 -20 -21 -25 -26 -27 0
-13 14 15 19 20 21 25 -26 -27 0
-13 14 15 19 20 21 -25 26 -27 0
-13 14 15 19 20 21 -25 -26 27 0
-13 14 15 19 20 -21 25 26 -27 0
-13 14 15 19 20 -21 25 -26 27 0
-13 14 15 19 20 -21 -25 26 27 0
-13 14 15 19 -20 21 25 26 27 0
-13 14 15 19 -20 21 -25 -26 -27 0
-13 14 15 19 -20 -21 25 -26 -27 0
-13 14 15 19 -20 -21 -25 26 -27 0
-13 14 15 19 -20 -21 -25 -26 27 0
-13 14 15 19 -20 -21 -25 -26 -27 0
-13 14 15 -19 20 21 25 26 -27 0
-13 14 15 -19 20 21 25 -26 27 0
-13 14 15 -19 20 21 -25 26 27 0
-13 14 15 -19 20 -21 25 26 27 0
-13 14 15 -19 -20 21 25 -26 -27 0
-13 14 15 -19 -20 21 -25 26 -27 0
-13 14 15 -19 -20 21 -25 -26 27 0
-13 14 15 -19 -20 21 -25 -26 -27 0
-13 14 15 -19 -20 -21 25 26 -27 0
-13 14 15 -19 -20 -21 25 -26 27 0
-13 14 15 -19 -20 -21 25 -26 -27 0
-13 14 15 -19 -20 -21 -25 26 27 0
-13 14 15 -19 -20 -21 -25 26 -27 0
-13 14 15 -19 -20 -21 -25 -26 27 0
-13 14 15 -19 -20 -21 -25 -26 -27 0
-13 14 -15 19 20 21 25 26 -27 0
-13 14 -15 19 20 21 25 -26 27 0
-13 14 -15 19 20 21 -25 26 27 0
-13 14 -15 19 20 -21 25 26 27 0
-13 14 -15 19 -20 21 25 -26 -27 0
-13 14 -15 19 -20 21 -25 26 -27 0
-13 14 -15 19 -20 21 -25 -26 27 0
-13 14 -15 19 -20 21 -25 -26 -27 0
-13 14 -15 19 -20 -21 25 26 -27 0
-13 14 -15 19 -20 -21 25 -26 27 0
-13 14 -15 19 -20 -21 25 -26 -27 0
-13 14 -15 19 -20 -21 -25 26 27 0
-13 14 -15 19 -20 -21 -25 26 -27 0
-13 14 -15 19 -20 -21 -25 -26 27 0
-13 14 -15 19 -20 -21 -25 -26 -27 0
-13 14 -15 -19 20 21 25 26 27 0
-13 14 -15 -19 -20 21 25 26 -27 0
-13 14 -15 -19 -20 21 25 -26 27 0
-13 14 -15 -19 -20 21 25 -26 -27 0
-13 14 -15 -19 -20 21 -25 26 27 0
-13 14 -15 -19 -20 21 -25 26 -27 0
-13 14 -15 -19 -20 21 -25 -26 27 0
-13 14 -15 -19 -20 21 -25 -26 -27 0
-13 14 -15 -19 -20 -21 25 26 27 0
-13 14 -15 -19 -20 -21 25 26 -27 0
-13 14 -15 -19 -20 -21 25 -26 27 0
-13 14 -15 -19 -20 -21 25 -26 -27 0
-13 14 -15 -19 -20 -21 -25 26 27 0
-13 14 -15 -19 -20 -21 -25 26 -27 0
-13 14 -15 -19 -20 -21 -25 -26 27 0
-13 14 -15 -19 -20 -21 -25 -26 -27 0
-13 -14 15 19 20 21 25 26 -27 0
-13 -14 15 19 20 21 25 -26 27 0
-13 -14 15 19 20 21 -25 26 27 0
-13 -14 15 19 20 -21 25 26 27 0
-13 -14 15 19 -20 21 25 -26 -27 0
-13 -14 15 19 -20 21 -25 26 -27 0
-13 -14 15 19 -20 21 -25 -26 27 0
-13 -14 15 19 -20 21 -25 -26 -27 0
-13 -14 15 19 -20 -21 25 26 -27 0
-13 -14 15 19 -20 -21 25 -26 27 0
-13 -14 15 19 -20 -21 25 -26 -27 0
-13 -14 15 19 -20 -21 -25 26 27 0
-13 -14 15 19 -20 -21 -25 26 -27 0
-13 -14 15 19 -20 -21 -25 -26 27 0
-13 -14 15 19 -20 -21 -25 -26 -27 0
-13 -14 15 -19 20 21 25 26 27 0
-13 -14 15 -19 -20 21 25 26 -27 0
-13 -14 15 -19 -20 21 25 -26 27 0
-13 -14 15 -19 -20 21 25 -26 -27 0
-13 -14 15 -19 -20 21 -25 26 27 0
-13 -14 15 -19 -20 21 -25 26 -27 0
-13 -14 15 -19 -20 21 -25 -26 27 0
-13 -14 15 -19 -20 21 -25 -26 -27 0
-13 -14 15 -19 -20 -21 25 26 27 0
-13 -14 15 -19 -20 -21 25 26 -27 0
-13 -14 15 -19 -20 -21 25 -26 27 0
-13 -14 15 -19 -20 -21 25 -26 -27 0
-13 -14 15 -19 -20 -21 -25 26 27 0
-13 -14 15 -19 -20 -21 -25 26 -27 0
-13 -14 15 -19 -20 -21 -25 -26 27 0
-13 -14 15 -19 -20 -21 -25 -26 -27 0
-13 -14 -15 19 20 21 25 26 27 0
-13 -14 -15 19 -20 21 25 26 -27 0
-13 -14 -15 19 -20 21 25 -26 27 0
-13 -14 -15 19 -20 21 25 -26 -27 0
-13 -14 -15 19 -20 21 -25 26 27 0
-13 -14 -15 19 -20 21 -25 26 -27 0
-13 -14 -15 19 -20 21 -25 -26 27 0
-13 -14 -15 19 -20 21 -25 -26 -27 0
-13 -14 -15 19 -20 -21 25 26 27 0
-13 -14 -15 19 -20 -21 25 26 -27 0
-13 -14 -15 19 -20 -21 25 -26 27 0
-13 -14 -15 19 -20 -21 25 -26 -27 0
-13 -14 -15 19 -20 -21 -25 26 27 0
-13 -14 -15 19 -20 -21 -25 26 -27 0
-13 -14 -15 19 -20 -21 -25 -26 27 0
-13 -14 -15 19 -20 -21 -25 -26 -27 0
-13 -14 -15 -19 -20 21 25 26 27 0
-13 -14 -15 -19 -20 21 25 26 -27 0
-13 -14 -15 -19 -20 21 25 -26 27 0
-13 -14 -15 -19 -20 21 25 -26 -27 0
-13 -14 -15 -19 -20 21 -25 26 27 0
-13 -14 -15 -19 -20 21 -25 26 -27 0
-13 -14 -15 -19 -20 21 -25 -26 27 0
-13 -14 -15 -19 -20 21 -25 -26 -27 0
-13 -14 -15 -19 -20 -21 25 26 27 0
-13 -14 -15 -19 -20 -21 25 26 -27 0
-13 -14 -15 -19 -20 -21 25 -26 27 0
-13 -14 -15 -19 -20 -21 25 -26 -27 0
-13 -14 -15 -19 -20 -21 -25 26 27 0
-13 -14 -15 -19 -20 -21 -25 26 -27 0
-13 -14 -15 -19 -20 -21 -25 -26 27 0
-13 -14 -15 -19 -20 -21 -25 -26 -27 0
14 15 16 20 21 22 -26 -27 -28 0
14 15 16 20 21 -22 26 -27 -28 0
14 15 16 20 21 -22 -26 27 -28 0
14 15 16 20 21 -22 -26 -27 28 0
14 15 16 20 -21 22 26 27 28 0
14 15 16 20 -21 22 26 27 -28 0
14 15 16 20 -21 22 26 -27 28 0
14 15 16 20 -21 22 -26 27 28 0
14 15 16 20 -21 -22 26 27 28 0
14 15 16 20 -21 -22 -26 -27 -28 0
14 15 16 -20 21 22 26 -27 -28 0
14 15 16 -20 21 22 -26 27 -28 0
14 15 16 -20 21 22 -26 -27 28 0
14 15 16 -20 21 -22 26 27 -28 0
14 15 16 -20 21 -22 26 -27 28 0
14 15 16 -20 21 -22 -26 27 28 0
14 15 16 -20 -21 22 26 27 28 0
14 15 16 -20 -21 22 -26 -27 -28 0
14 15 16 -20 -21 -22 26 -27 -28 0
14 15 16 -20 -21 -22 -26 27 -28 0
14 15 16 -20 -21 -22 -26 -27 28 0
14 15 16 -20 -21 -22 -26 -27 -28 0
14 15 -16 20 21 22 26 -27 -28 0
14 15 -16 20 21 22 -26 27 -28 0
14 15 -16 20 21 22 -26 -27 28 0
14 15 -16 20 21 -22 26 27 -28 0
14 15 -16 20 21 -22 26 -27 28 0
14 15 -16 20 21 -22 -26 27 28 0
14 15 -16 20 -21 22 26 27 28 0
14 15 -16 20 -21 22 -26 -27 -28 0
14 15 -16 20 -21 -22 26 -27 -28 0
14 15 -16 20 -21 -22 -26 27 -28 0
14 15 -16 20 -21 -22 -26 -27 28 0
14 15 -16 20 -21 -22 -26 -27 -28 0
14 15 -16 -20 21 22 26 27 -28 0
14 15 -16 -20 21 22 26 -27 28 0
14 15 -16 -20 21 22 -26 27 28 0
14 15 -16 -20 21 -22 26 27 28 0
14 15 -16 -20 -21 22 26 -27 -28 0
14 15 -16 -20 -21 22 -26 27 -28 0
14 15 -16 -20 -21 22 -26 -27 28 0
14 15 -16 -20 -21 22 -26 -27 -28 0
14 15 -16 -20 -21 -22 26 27 -28 0
14 15 -16 -20 -21 -22 26 -27 28 0
14 15 -16 -20 -21 -22 26 -27 -28 0
14 15 -16 -20 -21 -22 -26 27 28 0
14 15 -16 -20 -21 -22 -26 27 -28 0
14 15 -16 -20 -21 -22 -26 -27 28 0
14 15 -16 -20 -21 -22 -26 -27 -28 0
14 -15 16 20 21 22 26 -27 -28 0
14 -15 16 20 21 22 -26 27 -28 0
14 -15 16 20 21 22 -26 -27 28 0
14 -15 16 20 21 -22 26 27 -28 0
14 -15 16 20 21 -22 26 -27 28 0
14 -15 16 20 21 -22 -26 27 28 0
14 -15 16 20 -21 22 26 27 28 0
14 -15 16 20 -21 22 -26 -27 -28 0
14 -15 16 20 -21 -22 26 -27 -28 0
14 -15 16 20 -21 -22 -26 27 -28 0
14 -15 16 20 -21 -22 -26 -27 28 0
14 -15 16 20 -21 -22 -26 -27 -28 0
14 -15 16 -20 21 22 26 27 -28 0
14 -15 16 -20 21 22 26 -27 28 0
14 -15 16 -20 21 22 -26 27 28 0
14 -15 16 -20 21 -22 26 27 28 0
14 -15 16 -20 -21 22 26 -27 -28 0
14 -15 16 -20 -21 22 -26 27 -28 0
14 -15 16 -20 -21 22 -26 -27 28 0
14 -15 16 -20 -21 22 -26 -27 -28 0
14 -15 16 -20 -21 -22 26 27 -28 0
14 -15 16 -20 -21 -22 26 -27 28 0
14 -15 16 -20 -21 -22 26 -27 -28 0
14 -15 16 -20 -21 -22 -26 27 28 0
14 -15 16 -20 -21 -22 -26 27 -28 0
14 -15 16 -20 -21 -22 -26 -27 28 0
14 -15 16 -20 -21 -22 -26 -27 -28 0
14 -15 -16 20 21 22 26 27 -28 0
14 -15 -16 20 21 22 26 -27 28 0
14 -15 -16 20 21 22 -26 27 28 0
14 -15 -16 20 21 -22 26 27 28 0
14 -15 -16 20 -21 22 26 -27 -28 0
14 -15 -16 20 -21 22 -26 27 -28 0
14 -15 -16 20 -21 22 -26 -27 28 0
14 -15 -16 20 -21 22 -26 -27 -28 0
14 -15 -16 20 -21 -22 26 27 -28 0
14 -15 -16 20 -21 -22 26 -27 28 0
14 -15 -16 20 -21 -22 26 -27 -28 0
14 -15 -16 20 -21 -22 -26 27 28 0
14 -15 -16 20 -21 -22 -26 27 -28 0
14 -15 -16 20 -21 -22 -26 -27 28 0
14 -15 -16 20 -21 -22 -26 -27 -28 0
14 -15 -16 -20 21 22 26 27 28 0
14 -15 -16 -20 -21 22 26 27 -28 0
14 -15 -16 -20 -21 22 26 -27 28 0
14 -15 -16 -20 -21 22 26 -27 -28 0
14 -15 -16 -20 -21 22 -26 27 28 0
14 -15 -16 -20 -21 22 -26 27 -28 0
14 -15 -16 -20 -21 22 -26 -27 28 0
14 -15 -16 -20 -21 22 -26 -27 -28 0
14 -15 -16 -20 -21 -22 26 27 28 0
14 -15 -16 -20 -21 -22 26 27 -28 0
14 -15 -16 -20 -21 -22 26 -27 28 0
14 -15 -16 -20 -21 -22 26 -27 -28 0
14 -15 -16 -20 -21 -22 -26 27 28 0
14 -15 -16 -20 -21 -22 -26 27 -28 0
14 -15 -16 -20 -21 -22 -26 -27 28 0
14 -15 -16 -20 -21 -22 -26 -27 -28 0
-14 15 16 20 21 22 26 -27 -28 0
-14 15 16 20 21 22 -26 27 -28 0
-14 15 16 20 21 22 -26 -27 28 0
-14 15 16 20 21 -22 26 27 -28 0
-14 15 16 20 21 -22 26 -27 28 0
-14 15 16 20 21 -22 -26 27 28 0
-14 15 16 20 -21 22 26 27 28 0
-14 15 16 20 -21 22 -26 -27 -28 0
-14 15 16 20 -21 -22 26 -27 -28 0
-14 15 16 20 -21 -22 -26 27 -28 0
-14 15 16 20 -21 -22 -26 -27 28 0
-14 15 16 20 -21 -22 -26 -27 -28 0
-14 15 16 -20 21 22 26 27 -28 0
-14 15 16 -20 21 22 26 -27 28 0
-14 15 16 -20 21 22 -26 27 28 0
-14 15 16 -20 21 -22 26 27 28 0
-14 15 16 -20 -21 22 26 -27 -28 0
-14 15 16 -20 -21 22 -26 27 -28 0
-14 15 16 -20 -21 22 -26 -27 28 0
-14 15 16 -20 -21 22 -26 -27 -28 0
-14 15 16 -20 -21 -22 26 27 -28 0
-14 15 16 -20 -21 -22 26 -27 28 0
-14 15 16 -20 -21 -22 26 -27 -28 0
-14 15 16 -20 -21 -22 -26 27 28 0
-14 15 16 -20 -21 -22 -26 27 -28 0
-14 15 16 -20 -21 -22 -26 -27 28 0
-14 15 16 -20 -21 -22 -26 -27 -28 0
-14 15 -16 20 21 22 26 27 -28 0
-14 15 -16 20 21 22 26 -27 28 0
-14 15 -16 20 21 22 -26 27 28 0
-14 15 -16 20 21 -22 26 27 28 0
-14 15 -16 20 -21 22 26 -27 -28 0
-14 15 -16 20 -21 22 -26 27 -28 0
-14 15 -16 20 -21 22 -26 -27 28 0
-14 15 -16 20 -21 22 -26 -27 -28 0
-14 15 -16 20 -21 -22 26 27 -28 0
-14 15 -16 20 -21 -22 26 -27 28 0
-14 15 -16 20 -21 -22 26 -27 -28 0
-14 15 -16 20 -21 -22 -26 27 28 0
-14 15 -16 20 -21 -22 -26 27 -28 0
-14 15 -16 20 -21 -22 -26 -27 28 0
-14 15 -16 20 -21 -22 -26 -27 -28 0
-14 15 -16 -20 21 22 26 27 28 0
-14 15 -16 -20 -21 22 26 27 -28 0
-14 15 -16 -20 -21 22 26 -27 28 0
-14 15 -16 -20 -21 22 26 -27 -28 0
-14 15 -16 -20 -21 22 -26 27 28 0
-14 15 -16 -20 -21 22 -26 27 -28 0
-14 15 -16 -20 -21 22 -26 -27 28 0
-14 15 -16 -20 -21 22 -26 -27 -28 0
-14 15 -16 -20 -21 -22 26 27 28 0
-14 15 -16 -20 -21 -22 26 27 -28 0
-14 15 -16 -20 -21 -22 26 -27 28 0
-14 15 -16 -20 -21 -22 26 -27 -28 0
-14 15 -16 -20 -21 -22 -26 27 28 0
-14 15 -16 -20 -21 -22 -26 27 -28 0
-14 15 -16 -20 -21 -22 -26 -27 28 0
-14 15 -16 -20 -21 -22 -26 -27 -28 0
-14 -15 16 20 21 22 26 27 -28 0
-14 -15 16 20 21 22 26 -27 28 0
-14 -15 16 20 21 22 -26 27 28 0
-14 -15 16 20 21 -22 26 27 28 0
-14 -15 16 20 -21 22 26 -27 -28 0
-14 -15 16 20 -21 22 -26 27 -28 0
-14 -15 16 20 -21 22 -26 -27 28 0
-14 -15 16 20 -21 22 -26 -27 -28 0
-14 -15 16 20 -21 -22 26 27 -28 0
-14 -15 16 20 -21 -22 26 -27 28 0
-14 -15 16 20 -21 -22 26 -27 -28 0
-14 -15 16 20 -21 -22 -26 27 28 0
-14 -15 16 20 -21 -22 -26 27 -28 0
-14 -15 16 20 -21 -22 -26 -27 28 0
-14 -15 16 20 -21 -22 -26 -27 -28 0
-14 -15 16 -20 21 22 26 27 28 0
-14 -15 16 -20 -21 22 26 27 -28 0
-14 -15 16 -20 -21 22 26 -27 28 0
-14 -15 16 -20 -21 22 26 -27 -28 0
-14 -15 16 -20 -21 22 -26 27 28 0
-14 -15 16 -20 -21 22 -26 27 -28 0
-14 -15 16 -20 -21 22 -26 -27 28 0
-14 -15 16 -20 -21 22 -26 -27 -28 0
-14 -15 16 -20 -21 -22 26 27 28 0
-14 -15 16 -20 -21 -22 26 27 -28 0
-14 -15 16 -20 -21 -22 26 -27 28 0
-14 -15 16 -20 -21 -22 26 -27 -28 0
-14 -15 16 -20 -21 -22 -26 27 28 0
-14 -15 16 -20 -21 -22 -26 27 -28 0
-14 -15 16 -20 -21 -22 -26 -27 28 0
-14 -15 16 -20 -21 -22 -26 -27 -28 0
-14 -15 -16 20 21 22 26 27 28 0
-14 -15 -16 20 -21 22 26 27 -28 0
-14 -15 -16 20 -21 22 26 -27 28 0
-14 -15 -16 20 -21 22 26 -27 -28 0
-14 -15 -16 20 -21 22 -26 27 28 0
-14 -15 -16 20 -21 22 -26 27 -28 0
-14 -15 -16 20 -21 22 -26 -27 28 0
-14 -15 -16 20 -21 22 -26 -27 -28 0
-14 -15 -16 20 -21 -22 26 27 28 0
-14 -15 -16 20 -21 -22 26 27 -28 0
-14 -15 -16 20 -21 -22 26 -27 28 0
-14 -15 -16 20 -21 -22 26 -27 -28 0
-14 -15 -16 20 -21 -22 -26 27 28 0
-14 -15 -16 20 -21 -22 -26 27 -28 0
-14 -15 -16 20 -21 -22 -26 -27 28 0
-14 -15 -16 20 -21 -22 -26 -27 -28 0
-14 -15 -16 -20 -21 22 26 27 28 0
-14 -15 -16 -20 -21 22 26 27 -28 0
-14 -15 -16 -20 -21 22 26 -27 28 0
-14 -15 -16 -20 -21 22 26 -27 -28 0
-14 -15 -16 -20 -21 22 -26 27 28 0
-14 -15 -16 -20 -21 22 -26 27 -28 0
-14 -15 -16 -20 -21 22 -26 -27 28 0
-14 -15 -16 -20 -21 22 -26 -27 -28 0
-14 -15 -16 -20 -21 -22 26 27 28 0
-14 -15 -16 -20 -21 -22 26 27 -28 0
-14 -15 -16 -20 -21 -22 26 -27 28 0
-14 -15 -16 -20 -21 -22 26 -27 -28 0
-14 -15 -16 -20 -21 -22 -26 27 28 0
-14 -15 -16 -20 -21 -22 -26 27 -28 0
-14 -15 -16 -20 -21 -22 -26 -27 28 0
-14 -15 -16 -20 -21 -22 -26 -27 -28 0
15 16 17 21 22 23 -27 -28 -29 0
15 16 17 21 22 -23 27 -28 -29 0
15 16 17 21 22 -23 -27 28 -29 0
15 16 17 21 22 -23 -27 -28 29 0
15 16 17 21 -22 23 27 28 29 0
15 16 17 21 -22 23 27 28 -29 0
15 16 17 21 -22 23 27 -28 29 0
15 16 17 21 -22 23 -27 28 29 0
15 16 17 21 -22 -23 27 28 29 0
15 16 17 21 -22 -23 -27 -28 -29 0
15 16 17 -21 22 23 27 -28 -29 0
15 16 17 -21 22 23 -27 28 -29 0
15 16 17 -21 22 23 -27 -28 29 0
15 16 17 -21 22 -23 27 28 -29 0
15 16 17 -21 22 -23 27 -28 29 0
15 16 17 -21 22 -23 -27 28 29 0
15 16 17 -21 -22 23 27 28 29 0
15 16 17 -21 -22 23 -27 -28 -29 0
15 16 17 -21 -22 -23 27 -28 -29 0
15 16 17 -21 -22 -23 -27 28 -29 0
15 16 17 -21 -22 -23 -27 -28 29 0
15 16 17 -21 -22 -23 -27 -28 -29 0
15 16 -17 21 22 23 27 -28 -29 0
15 16 -17 21 22 23 -27 28 -29 0
15 16 -17 21 22 23 -27 -28 29 0
15 16 -17 21 22 -23 27 28 -29 0
15 16 -17 21 22 -23 27 -28 29 0
15 16 -17 21 22 -23 -27 28 29 0
15 16 -17 21 -22 23 27 28 29 0
15 16 -17 21 -22 23 -27 -28 -29 0
15 16 -17 21 -22 -23 27 -28 -29 0
15 16 -17 21 -22 -23 -27 28 -29 0
15 16 -17 21 -22 -23 -27 -28 29 0
15 16 -17 21 -22 -23 -27 -28 -29 0
15 16 -17 -21 22 23 27 28 -29 0
15 16 -17 -21 22 23 27 -28 29 0
15 16 -17 -21 22 23 -27 28 29 0
15 16 -17 -21 22 -23 27 28 29 0
15 16 -17 -21 -22 23 27 -28 -29 0
15 16 -17 -21 -22 23 -27 28 -29 0
15 16 -17 -21 -22 23 -27 -28 29 0
15 16 -17 -21 -22 23 -27 -28 -29 0
15 16 -17 -21 -22 -23 27 28 -29 0
15 16 -17 -21 -22 -23 27 -28 29 0
15 16 -17 -21 -22 -23 27 -28 -29 0
15 16 -17 -21 -22 -23 -27 28 29 0
15 16 -17 -21 -22 -23 -27 28 -29 0
15 16 -17 -21 -22 -23 -27 -28 29 0
15 16 -17 -21 -22 -23 -27 -28 -29 0
15 -16 17 21 22 23 27 -28 -29 0
15 -16 17 21 22 23 -27 28 -29 0
15 -16 17 21 22 23 -27 -28 29 0
15 -16 17 21 22 -23 27 28 -29 0
15 -16 17 21 22 -23 27 -28 29 0
15 -16 17 21 22 -23 -27 28 29 0
15 -16 17 21 -22 23 27 28 29 0
15 -16 17 21 -22 23 -27 -28 -29 0
15 -16 17 21 -22 -23 27 -28 -29 0
15 -16 17 21 -22 -23 -27 28 -29 0
15 -16 17 21 -22 -23 -27 -28 29 0
15 -16 17 21 -22 -23 -27 -28 -29 0
15 -16 17 -21 22 23 27 28 -29 0
15 -16 17 -21 22 23 27 -28 29 0
15 -16 17 -21 22 23 -27 28 29 0
15 -16 17 -21 22 -23 27 28 29 0
15 -16 17 -21 -22 23 27 -28 -29 0
15 -16 17 -21 -22 23 -27 28 -29 0
15 -16 17 -21 -22 23 -27 -28 29 0
15 -16 17 -21 -22 23 -27 -28 -29 0
15 -16 17 -21 -22 -23 27 28 -29 0
15 -16 17 -21 -22 -23 27 -28 29 0
15 -16 17 -21 -22 -23 27 -28 -29 0
15 -16 17 -21 -22 -23 -27 28 29 0
15 -16 17 -21 -22 -23 -27 28 -29 0
15 -16 17 -21 -22 -23 -27 -28 29 0
15 -16 17 -21 -22 -23 -27 -28 -29 0
15 -16 -17 21 22 23 27 28 -29 0
15 -16 -17 21 22 23 27 -28 29 0
15 -16 -17 21 22 23 -27 28 29 0
15 -16 -17 21 22 -23 27 28 29 0
15 -16 -17 21 -22 23 27 -28 -29 0
15 -16 -17 21 -22 23 -27 28 -29 0
15 -16 -17 21 -22 23 -27 -28 29 0
15 -16 -17 21 -22 23 -27 -28 -29 0
15 -16 -17 21 -22 -23 27 28 -29 0
15 -16 -17 21 -22 -23 27 -28 29 0
15 -16 -17 21 -22 -23 27 -28 -29 0
15 -16 -17 21 -22 -23 -27 28 29 0
15 -16 -17 21 -22 -23 -27 28 -29 0
15 -16 -17 21 -22 -23 -27 -28 29 0
15 -16 -17 21 -22 -23 -27 -28 -29 0
15 -16 -17 -21 22 23 27 28 29 0
15 -16 -17 -21 -22 23 27 28 -29 0
15 -16 -17 -21 -22 23 27 -28 29 0
15 -16 -17 -21 -22 23 27 -28 -29 0
15 -16 -17 -21 -22 23 -27 28 29 0
15 -16 -17 -21 -22 23 -27 28 -29 0
15 -16 -17 -21 -22 23 -27 -28 29 0
15 -16 -17 -21 -22 23 -27 -28 -29 0
15 -16 -17 -21 -22 -23 27 28 29 0
15 -16 -17 -21 -22 -23 27 28 -29 0
15 -16 -17 -21 -22 -23 27 -28 29 0
15 -16 -17 -21 -22 -23 27 -28 -29 0
15 -16 -17 -21 -22 -23 -27 28 29 0
15 -16 -17 -21 -22 -23 -27 28 -29 0
15 -16 -17 -21 -22 -23 -27 -28 29 0
15 -16 -17 -21 -22 -23 -27 -28 -29 0
-15 16 17 21 22 23 27 -28 -29 0
-15 16 17 21 22 23 -27 28 -29 0
-15 16 17 21 22 23 -27 -28 29 0
-15 16 17 21 22 -23 27 28 -29 0
-15 16 17 21 22 -23 27 -28 29 0
-15 16 17 21 22 -23 -27 28 29 0
-15 16 17 21 -22 23 27 28 29 0
-15 16 17 21 -22 23 -27 -28 -29 0
-15 16 17 21 -22 -23 27 -28 -29 0
-15 16 17 21 -22 -23 -27 28 -29 0
-15 16 17 21 -22 -23 -27 -28 29 0
-15 16 17 21 -22 -23 -27 -28 -29 0
-15 16 17 -21 22 23 27 28 -29 0
-15 16 17 -21 22 23 27 -28 29 0
-15 16 17 -21 22 23 -27 28 29 0
-15 16 17 -21 22 -23 27 28 29 0
-15 16 17 -21 -22 23 27 -28 -29 0
-15 16 17 -21 -22 23 -27 28 -29 0
-15 16 17 -21 -22 23 -27 -28 29 0
-15 16 17 -21 -22 23 -27 -28 -29 0
-15 16 17 -21 -22 -23 27 28 -29 0
-15 16 17 -21 -22 -23 27 -28 29 0
-15 16 17 -21 -22 -23 27 -28 -29 0
-15 16 17 -21 -22 -23 -27 28 29 0
-15 16 17 -21 -22 -23 -27 28 -29 0
-15 16 17 -21 -22 -23 -27 -28 29 0
-15 16 17 -21 -22 -23 -27 -28 -29 0
-15 16 -17 21 22 23 27 28 -29 0
-15 16 -17 21 22 23 27 -28 29 0
-15 16 -17 21 22 23 -27 28 29 0
-15 16 -17 21 22 -23 27 28 29 0
-15 16 -17 21 -22 23 27 -28 -29 0
-15 16 -17 21 -22 23 -27 28 -29 0
-15 16 -17 21 -22 23 -27 -28 29 0
-15 16 -17 21 -22 23 -27 -28 -29 0
-15 16 -17 21 -22 -23 27 28 -29 0
-15 16 -17 21 -22 -23 27 -28 29 0
-15 16 -17 21 -22 -23 27 -28 -29 0
-15 16 -17 21 -22 -23 -27 28 29 0
-15 16 -17 21 -22 -23 -27 28 -29 0
-15 16 -17 21 -22 -23 -27 -28 29 0
-15 16 -17 21 -22 -23 -27 -28 -29 0
-15 16 -17 -21 22 23 27 28 29 0
-15 16 -17 -21 -22 23 27 28 -29 0
-15 16 -17 -21 -22 23 27 -28 29 0
-15 16 -17 -21 -22 23 27 -28 -29 0
-15 16 -17 -21 -22 23 -27 28 29 0
-15 16 -17 -21 -22 23 -27 28 -29 0
-15 16 -17 -21 -22 23 -27 -28 29 0
-15 16 -17 -21 -22 23 -27 -28 -29 0
-15 16 -17 -21 -22 -23 27 28 29 0
-15 16 -17 -21 -22 -23 27 28 -29 0
-15 16 -17 -21 -22 -23 27 -28 29 0
-15 16 -17 -21 -22 -23 27 -28 -29 0
-15 16 -17 -21 -22 -23 -27 28 29 0
-15 16 -17 -21 -22 -23 -27 28 -29 0
-15 16 -17 -21 -22 -23 -27 -28 29 0
-15 16 -17 -21 -22 -23 -27 -28 -29 0
-15 -16 17 21 22 23 27 28 -29 0
-15 -16 17 21 22 23 27 -28 29 0
-15 -16 17 21 22 23 -27 28 29 0
-15 -16 17 21 22 -23 27 28 29 0
-15 -16 17 21 -22 23 27 -28 -29 0
-15 -16 17 21 -22 23 -27 28 -29 0
-15 -16 17 21 -22 23 -27 -28 29 0
-15 -16 17 21 -22 23 -27 -28 -29 0
-15 -16 17 21 -22 -23 27 28 -29 0
-15 -16 17 21 -22 -23 27 -28 29 0
-15 -16 17 21 -22 -23 27 -28 -29 0
-15 -16 17 21 -22 -23 -27 28 29 0
-15 -16 17 21 -22 -23 -27 28 -29 0
-15 -16 17 21 -22 -23 -27 -28 29 0
-15 -16 17 21 -22 -23 -27 -28 -29 0
-15 -16 17 -21 22 23 27 28 29 0
-15 -16 17 -21 -22 23 27 28 -29 0
-15 -16 17 -21 -22 23 27 -28 29 0
-15 -16 17 -21 -22 23 27 -28 -29 0
-15 -16 17 -21 -22 23 -27 28 29 0
-15 -16 17 -21 -22 23 -27 28 -29 0
-15 -16 17 -21 -22 23 -27 -28 29 0
-15 -16 17 -21 -22 23 -27 -28 -29 0
-15 -16 17 -21 -22 -23 27 28 29 0
-15 -16 17 -21 -22 -23 27 28 -29 0
-15 -16 17 -21 -22 -23 27 -28 29 0
-15 -16 17 -21 -22 -23 27 -28 -29 0
-15 -16 17 -21 -22 -23 -27 28 29 0
-15 -16 17 -21 -22 -23 -27 28 -29 0
-15 -16 17 -21 -22 -23 -27 -28 29 0
-15 -16 17 -21 -22 -23 -27 -28 -29 0
-15 -16 -17 21 22 23 27 28 29 0
-15 -16 -17 21 -22 23 27 28 -29 0
-15 -16 -17 21 -22 23 27 -28 29 0
-15 -16 -17 21 -22 23 27 -28 -29 0
-15 -16 -17 21 -22 23 -27 28 29 0
-15 -16 -17 21 -22 23 -27 28 -29 0
-15 -16 -17 21 -22 23 -27 -28 29 0
-15 -16 -17 21 -22 23 -27 -28 -29 0
-15 -16 -17 21 -22 -23 27 28 29 0
-15 -16 -17 21 -22 -23 27 28 -29 0
-15 -16 -17 21 -22 -23 27 -28 29 0
-15 -16 -17 21 -22 -23 27 -28 -29 0
-15 -16 -17 21 -22 -23 -27 28 29 0
-15 -16 -17 21 -22 -23 -27 28 -29 0
-15 -16 -17 21 -22 -23 -27 -28 29 0
-15 -16 -17 21 -22 -23 -27 -28 -29 0
-15 -16 -17 -21 -22 23 27 28 29 0
-15 -16 -17 -21 -22 23 27 28 -29 0
-15 -16 -17 -21 -22 23 27 -28 29 0
-15 -16 -17 -21 -22 23 27 -28 -29 0
-15 -16 -17 -21 -22 23 -27 28 29 0
-15 -16 -17 -21 -22 23 -27 28 -29 0
-15 -16 -17 -21 -22 23 -27 -28 29 0
-15 -16 -17 -21 -22 23 -27 -28 -29 0
-15 -16 -17 -21 -22 -23 27 28 29 0
-15 -16 -17 -21 -22 -23 27 28 -29 0
-15 -16 -17 -21 -22 -23 27 -28 29 0
-15 -16 -17 -21 -22 -23 27 -28 -29 0
-15 -16 -17 -21 -22 -23 -27 28 29 0
-15 -16 -17 -21 -22 -23 -27 28 -29 0
-15 -16 -17 -21 -22 -23 -27 -28 29 0
-15 -16 -17 -21 -22 -23 -27 -28 -29 0
16 17 18 22 23 24 -28 -29 -30 0
16 17 18 22 23 -24 28 -29 -30 0
16 17 18 22 23 -24 -28 29 -30 0
16 17 18 22 23 -24 -28 -29 30 0
16 17 18 22 -23 24 28 29 30 0
16 17 18 22 -23 24 28 29 -30 0
16 17 18 22 -23 24 28 -29 30 0
16 17 18 22 -23 24 -28 29 30 0
16 17 18 22 -23 -24 28 29 30 0
16 17 18 22 -23 -24 -28 -29 -30 0
16 17 18 -22 23 24 28 -29 -30 0
16 17 18 -22 23 24 -28 29 -30 0
16 17 18 -22 23 24 -28 -29 30 0
16 17 18 -22 23 -24 28 29 -30 0
16 17 18 -22 23 -24 28 -29 30 0
16 17 18 -22 23 -24 -28 29 30 0
16 17 18 -22 -23 24 28 29 30 0
16 17 18 -22 -23 24 -28 -29 -30 0
16 17 18 -22 -23 -24 28 -29 -30 0
16 17 18 -22 -23 -24 -28 29 -30 0
16 17 18 -22 -23 -24 -28 -29 30 0
16 17 18 -22 -23 -24 -28 -29 -30 0
16 17 -18 22 23 24 28 -29 -30 0
16 17 -18 22 23 24 -28 29 -30 0
16 17 -18 22 23 24 -28 -29 30 0
16 17 -18 22 23 -24 28 29 -30 0
16 17 -18 22 23 -24 28 -29 30 0
16 17 -18 22 23 -24 -28 29 30 0
16 17 -18 22 -23 24 28 29 30 0
16 17 -18 22 -23 24 -28 -29 -30 0
16 17 -18 22 -23 -24 28 -29 -30 0
16 17 -18 22 -23 -24 -28 29 -30 0
16 17 -18 22 -23 -24 -28 -29 30 0
16 17 -18 22 -23 -24 -28 -29 -30 0
16 17 -18 -22 23 24 28 29 -30 0
16 17 -18 -22 23 24 28 -29 30 0
16 17 -18 -22 23 24 -28 29 30 0
16 17 -18 -22 23 -24 28 29 30 0
16 17 -18 -22 -23 24 28 -29 -30 0
16 17 -18 -22 -23 24 -28 29 -30 0
16 17 -18 -22 -23 24 -28 -29 30 0
16 17 -18 -22 -23 24 -28 -29 -30 0
16 17 -18 -22 -23 -24 28 29 -30 0
16 17 -18 -22 -23 -24 28 -29 30 0
16 17 -18 -22 -23 -24 28 -29 -30 0
16 17 -18 -22 -23 -24 -28 29 30 0
16 17 -18 -22 -23 -24 -28 29 -30 0
16 17 -18 -22 -23 -24 -28 -29 30 0
16 17 -18 -22 -23 -24 -28 -29 -30 0
16 -17 18 22 23 24 28 -29 -30 0
16 -17 18 22 23 24 -28 29 -30 0
16 -17 18 22 23 24 -28 -29 30 0
16 -17 18 22 23 -24 28 29 -30 0
16 -17 18 22 23 -24 28 -29 30 0
16 -17 18 22 23 -24 -28 29 30 0
16 -17 18 22 -23 24 28 29 30 0
16 -17 18 22 -23 24 -28 -29 -30 0
16 -17 18 22 -23 -24 28 -29 -30 0
16 -17 18 22 -23 -24 -28 29 -30 0
16 -17 18 22 -23 -24 -28 -29 30 0
16 -17 18 22 -23 -24 -28 -29 -30 0
16 -17 18 -22 23 24 28 29 -30 0
16 -17 18 -22 23 24 28 -29 30 0
16 -17 18 -22 23 24 -28 29 30 0
16 -17 18 -22 23 -24 28 29 30 0
16 -17 18 -22 -23 24 28 -29 -30 0
16 -17 18 -22 -23 24 -28 29 -30 0
16 -17 18 -22 -23 24 -28 -29 30 0
16 -17 18 -22 -23 24 -28 -29 -30 0
16 -17 18 -22 -23 -24 28 29 -30 0
16 -17 18 -22 -23 -24 28 -29 30 0
16 -17 18 -22 -23 -24 28 -29 -30 0
16 -17 18 -22 -23 -24 -28 29 30 0
16 -17 18 -22 -23 -24 -28 29 -30 0
16 -17 18 -22 -23 -24 -28 -29 30 0
16 -17 18 -22 -23 -24 -28 -29 -30 0
16 -17 -18 22 23 24 28 29 -30 0
16 -17 -18 22 23 24 28 -29 30 0
16 -17 -18 22 23 24 -28 29 30 0
16 -17 -18 22 23 -24 28 29 30 0
16 -17 -18 22 -23 24 28 -29 -30 0
16 -17 -18 22 -23 24 -28 29 -30 0
16 -17 -18 22 -23 24 -28 -29 30 0
16 -17 -18 22 -23 24 -28 -29 -30 0
16 -17 -18 22 -23 -24 28 29 -30 0
16 -17 -18 22 -23 -24 28 -29 30 0
16 -17 -18 22 -23 -24 28 -29 -30 0
16 -17 -18 22 -23 -24 -28 29 30 0
16 -17 -18 22 -23 -24 -28 29 -30 0
16 -17 -18 22 -23 -24 -28 -29 30 0
16 -17 -18 22 -23 -24 -28 -29 -30 0
16 -17 -18 -22 23 24 28 29 30 0
16 -17 -18 -22 -23 24 28 29 -30 0
16 -17 -18 -22 -23 24 28 -29 30 0
16 -17 -18 -22 -23 24 28 -29 -30 0
16 -17 -18 -22 -23 24 -28 29 30 0
16 -17 -18 -22 -23 24 -28 29 -30 0
16 -17 -18 -22 -23 24 -28 -29 30 0
16 -17 -18 -22 -23 24 -28 -29 -30 0
16 -17 -18 -22 -23 -24 28 29 30 0
16 -17 -18 -22 -23 -24 28 29 -30 0
16 -17 -18 -22 -23 -24 28 -29 30 0
16 -17 -18 -22 -23 -24 28 -29 -30 0
16 -17 -18 -22 -23 -24 -28 29 30 0
16 -17 -18 -22 -23 -24 -28 29 -30 0
16 -17 -18 -22 -23 -24 -28 -29 30 0
16 -17 -18 -22 -23 -24 -28 -29 -30 0
-16 17 18 22 23 24 28 -29 -30 0
-16 17 18 22 23 24 -28 29 -30 0
-16 17 18 22 23 24 -28 -29 30 0
-16 17 18 22 23 -24 28 29 -30 0
-16 17 18 22 23 -24 28 -29 30 0
-16 17 18 22 23 -24 -28 29 30 0
-16 17 18 22 -23 24 28 29 30 0
-16 17 18 22 -23 24 -28 -29 -30 0
-16 17 18 22 -23 -24 28 -29 -30 0
-16 17 18 22 -23 -24 -28 29 -30 0
-16 17 18 22 -23 -24 -28 -29 30 0
-16 17 18 22 -23 -24 -28 -29 -30 0
-16 17 18 -22 23 24 28 29 -30 0
-16 17 18 -22 23 24 28 -29 30 0
-16 17 18 -22 23 24 -28 29 30 0
-16 17 18 -22 23 -24 28 29 30 0
-16 17 18 -22 -23 24 28 -29 -30 0
-16 17 18 -22 -23 24 -28 29 -30 0
-16 17 18 -22 -23 24 -28 -29 30 0
-16 17 18 -22 -23 24 -28 -29 -30 0
-16 17 18 -22 -23 -24 28 29 -30 0
-16 17 18 -22 -23 -24 28 -29 30 0
-16 17 18 -22 -23 -24 28 -29 -30 0
-16 17 18 -22 -23 -24 -28 29 30 0
-16 17 18 -22 -23 -24 -28 29 -30 0
-16 17 18 -22 -23 -24 -28 -29 30 0
-16 17 18 -22 -23 -24 -28 -29 -30 0
-16 17 -18 22 23 24 28 29 -30 0
-16 17 -18 22 23 24 28 -29 30 0
-16 17 -18 22 23 24 -28 29 30 0
-16 17 -18 22 23 -24 28 29 30 0
-16 17 -18 22 -23 24 28 -29 -30 0
-16 17 -18 22 -23 24 -28 29 -30 0
-16 17 -18 22 -23 24 -28 -29 30 0
-16 17 -18 22 -23 24 -28 -29 -30 0
-16 17 -18 22 -23 -24 28 29 -30 0
-16 17 -18 22 -23 -24 28 -29 30 0
-16 17 -18 22 -23 -24 28 -29 -30 0
-16 17 -18 22 -23 -24 -28 29 30 0
-16 17 -18 22 -23 -24 -28 29 -30 0
-16 17 -18 22 -23 -24 -28 -29 30 0
-16 17 -18 22 -23 -24 -28 -29 -30 0
-16 17 -18 -22 23 24 28 29 30 0
-16 17 -18 -22 -23 24 28 29 -30 0
-16 17 -18 -22 -23 24 28 -29 30 0
-16 17 -18 -22 -23 24 28 -29 -30 0
-16 17 -18 -22 -23 24 -28 29 30 0
-16 17 -18 -22 -23 24 -28 29 -30 0
-16 17 -18 -22 -23 24 -28 -29 30 0
-16 17 -18 -22 -23 24 -28 -29 -30 0
-16 17 -18 -22 -23 -24 28 29 30 0
-16 17 -18 -22 -23 -24 28 29 -30 0
-16 17 -18 -22 -23 -24 28 -29 30 0
-16 17 -18 -22 -23 -24 28 -29 -30 0
-16 17 -18 -22 -23 -24 -28 29 30 0
-16 17 -18 -22 -23 -24 -28 29 -30 0
-16 17 -18 -22 -23 -24 -28 -29 30 0
-16 17 -18 -22 -23 -24 -28 -29 -30 0
-16 -17 18 22 23 24 28 29 -30 0
-16 -17 18 22 23 24 28 -29 30 0
-16 -17 18 22 23 24 -28 29 30 0
-16 -17 18 22 23 -24 28 29 30 0
-16 -17 18 22 -23 24 28 -29 -30 0
-16 -17 18 22 -23 24 -28 29 -30 0
-16 -17 18 22 -23 24 -28 -29 30 0
-16 -17 18 22 -23 24 -28 -29 -30 0
-16 -17 18 22 -23 -24 28 29 -30 0
-16 -17 18 22 -23 -24 28 -29 30 0
-16 -17 18 22 -23 -24 28 -29 -30 0
-16 -17 18 22 -23 -24 -28 29 30 0
-16 -17 18 22 -23 -24 -28 29 -30 0
-16 -17 18 22 -23 -24 -28 -29 30 0
-16 -17 18 22 -23 -24 -28 -29 -30 0
-16 -17 18 -22 23 24 28 29 30 0
-16 -17 18 -22 -23 24 28 29 -30 0
-16 -17 18 -22 -23 24 28 -29 30 0
-16 -17 18 -22 -23 24 28 -29 -30 0
-16 -17 18 -22 -23 24 -28 29 30 0
-16 -17 18 -22 -23 24 -28 29 -30 0
-16 -17 18 -22 -23 24 -28 -29 30 0
-16 -17 18 -22 -23 24 -28 -29 -30 0
-16 -17 18 -22 -23 -24 28 29 30 0
-16 -17 18 -22 -23 -24 28 29 -30 0
-16 -17 18 -22 -23 -24 28 -29 30 0
-16 -17 18 -22 -23 -24 28 -29 -30 0
-16 -17 18 -22 -23 -24 -28 29 30 0
-16 -17 18 -22 -23 -24 -28 29 -30 0
-16 -17 18 -22 -23 -24 -28 -29 30 0
-16 -17 18 -22 -23 -24 -28 -29 -30 0
-16 -17 -18 22 23 24 28 29 30 0
-16 -17 -18 22 -23 24 28 29 -30 0
-16 -17 -18 22 -23 24 28 -29 30 0
-16 -17 -18 22 -23 24 28 -29 -30 0
-16 -17 -18 22 -23 24 -28 29 30 0
-16 -17 -18 22 -23 24 -28 29 -30 0
-16 -17 -18 22 -23 24 -28 -29 30 0
-16 -17 -18 22 -23 24 -28 -29 -30 0
-16 -17 -18 22 -23 -24 28 29 30 0
-16 -17 -18 22 -23 -24 28 29 -30 0
-16 -17 -18 22 -23 -24 28 -29 30 0
-16 -17 -18 22 -23 -24 28 -29 -30 0
-16 -17 -18 22 -23 -24 -28 29 30 0
-16 -17 -18 22 -23 -24 -28 29 -30 0
-16 -17 -18 22 -23 -24 -28 -29 30 0
-16 -17 -18 22 -23 -24 -28 -29 -30 0
-16 -17 -18 -22 -23 24 28 29 30 0
-16 -17 -18 -22 -23 24 28 29 -30 0
-16 -17 -18 -22 -23 24 28 -29 30 0
-16 -17 -18 -22 -23 24 28 -29 -30 0
-16 -17 -18 -22 -23 24 -28 29 30 0
-16 -17 -18 -22 -23 24 -28 29 -30 0
-16 -17 -18 -22 -23 24 -28 -29 30 0
-16 -17 -18 -22 -23 24 -28 -29 -30 0
-16 -17 -18 -22 -23 -24 28 29 30 0
-16 -17 -18 -22 -23 -24 28 29 -30 0
-16 -17 -18 -22 -23 -24 28 -29 30 0
-16 -17 -18 -22 -23 -24 28 -29 -30 0
-16 -17 -18 -22 -23 -24 -28 29 30 0
-16 -17 -18 -22 -23 -24 -28 29 -30 0
-16 -17 -18 -22 -23 -24 -28 -29 30 0
-16 -17 -18 -22 -23 -24 -28 -29 -30 0
17 18 23 -24 29 30 0
17 18 23 -24 29 -30 0
17 18 23 -24 -29 30 0
17 18 -23 24 -29 -30 0
17 18 -23 -24 29 30 0
17 -18 23 24 -29 -30 0
17 -18 23 -24 29 30 0
17 -18 -23 24 29 -30 0
17 -18 -23 24 -29 30 0
17 -18 -23 -24 -29 -30 0
-17 18 23 24 -29 -30 0
-17 18 23 -24 29 30 0
-17 18 -23 24 29 -30 0
-17 18 -23 24 -29 30 0
-17 18 -23 -24 -29 -30 0
-17 -18 23 24 29 -30 0
-17 -18 23 24 -29 30 0
-17 -18 23 -24 -29 -30 0
-17 -18 -23 24 29 30 0
-17 -18 -23 -24 29 -30 0
-17 -18 -23 -24 -29 30 0
-17 -18 -23 -24 -29 -30 0
-18 -24 -30 0
-19 -25 -31 0
19 20 25 -26 -31 -32 0
19 20 -25 26 31 32 0
19 20 -25 26 31 -32 0
19 20 -25 26 -31 32 0
19 20 -25 -26 31 32 0
19 -20 25 26 -31 -32 0
19 -20 25 -26 31 -32 0
19 -20 25 -26 -31 32 0
19 -20 -25 26 31 32 0
19 -20 -25 -26 -31 -32 0
-19 20 25 26 -31 -32 0
-19 20 25 -26 31 -32 0
-19 20 25 -26 -31 32 0
-19 20 -25 26 31 32 0
-19 20 -25 -26 -31 -32 0
-19 -20 25 26 31 -32 0
-19 -20 25 26 -31 32 0
-19 -20 25 -26 31 32 0
-19 -20 -25 26 -31 -32 0
-19 -20 -25 -26 31 -32 0
-19 -20 -25 -26 -31 32 0
-19 -20 -25 -26 -31 -32 0
19 20 21 25 26 27 -31 -32 -33 0
19 20 21 25 26 -27 31 -32 -33 0
19 20 21 25 26 -27 -31 32 -33 0
19 20 21 25 26 -27 -31 -32 33 0
19 20 21 25 -26 27 31 32 33 0
19 20 21 25 -26 27 31 32 -33 0
19 20 21 25 -26 27 31 -32 33 0
19 20 21 25 -26 27 -31 32 33 0
19 20 21 25 -26 -27 31 32 33 0
19 20 21 25 -26 -27 -31 -32 -33 0
19 20 21 -25 26 27 31 -32 -33 0
19 20 21 -25 26 27 -31 32 -33 0
19 20 21 -25 26 27 -31 -32 33 0
19 20 21 -25 26 -27 31 32 -33 0
19 20 21 -25 26 -27 31 -32 33 0
19 20 21 -25 26 -27 -31 32 33 0
19 20 21 -25 -26 27 31 32 33 0
19 20 21 -25 -26 27 -31 -32 -33 0
19 20 21 -25 -26 -27 31 -32 -33 0
19 20 21 -25 -26 -27 -31 32 -33 0
19 20 21 -25 -26 -27 -31 -32 33 0
19 20 21 -25 -26 -27 -31 -32 -33 0
19 20 -21 25 26 27 31 -32 -33 0
19 20 -21 25 26 27 -31 32 -33 0
19 20 -21 25 26 27 -31 -32 33 0
19 20 -21 25 26 -27 31 32 -33 0
19 20 -21 25 26 -27 31 -32 33 0
19 20 -21 25 26 -27 -31 32 33 0
19 20 -21 25 -26 27 31 32 33 0
19 20 -21 25 -26 27 -31 -32 -33 0
19 20 -21 25 -26 -27 31 -32 -33 0
19 20 -21 25 -26 -27 -31 32 -33 0
19 20 -21 25 -26 -27 -31 -32 33 0
19 20 -21 25 -26 -27 -31 -32 -33 0
19 20 -21 -25 26 27 31 32 -33 0
19 20 -21 -25 26 27 31 -32 33 0
19 20 -21 -25 26 27 -31 32 33 0
19 20 -21 -25 26 -27 31 32 33 0
19 20 -21 -25 -26 27 31 -32 -33 0
19 20 -21 -25 -26 27 -31 32 -33 0
19 20 -21 -25 -26 27 -31 -32 33 0
19 20 -21 -25 -26 27 -31 -32 -33 0
19 20 -21 -25 -26 -27 31 32 -33 0
19 20 -21 -25 -26 -27 31 -32 33 0
19 20 -21 -25 -26 -27 31 -32 -33 0
19 20 -21 -25 -26 -27 -31 32 33 0
19 20 -21 -25 -26 -27 -31 32 -33 0
19 20 -21 -25 -26 -27 -31 -32 33 0
19 20 -21 -25 -26 -27 -31 -32 -33 0
19 -20 21 25 26 27 31 -32 -33 0
19 -20 21 25 26 27 -31 32 -33 0
19 -20 21 25 26 27 -31 -32 33 0
19 -20 21 25 26 -27 31 32 -33 0
19 -20 21 25 26 -27 31 -32 33 0
19 -20 21 25 26 -27 -31 32 33 0
19 -20 21 25 -26 27 31 32 33 0
19 -20 21 25 -26 27 -31 -32 -33 0
19 -20 21 25 -26 -27 31 -32 -33 0
19 -20 21 25 -26 -27 -31 32 -33 0
19 -20 21 25 -26 -27 -31 -32 33 0
19 -20 21 25 -26 -27 -31 -32 -33 0
19 -20 21 -25 26 27 31 32 -33 0
19 -20 21 -25 26 27 31 -32 33 0
19 -20 21 -25 26 27 -31 32 33 0
19 -20 21 -25 26 -27 31 32 33 0
19 -20 21 -25 -26 27 31 -32 -33 0
19 -20 21 -25 -26 27 -31 32 -33 0
19 -20 21 -25 -26 27 -31 -32 33 0
19 -20 21 -25 -26 27 -31 -32 -33 0
19 -20 21 -25 -26 -27 31 32 -33 0
19 -20 21 -25 -26 -27 31 -32 33 0
19 -20 21 -25 -26 -27 31 -32 -33 0
19 -20 21 -25 -26 -27 -31 32 33 0
19 -20 21 -25 -26 -27 -31 32 -33 0
19 -20 21 -25 -26 -27 -31 -32 33 0
19 -20 21 -25 -26 -27 -31 -32 -33 0
19 -20 -21 25 26 27 31 32 -33 0
19 -20 -21 25 26 27 31 -32 33 0
19 -20 -21 25 26 27 -31 32 33 0
19 -20 -21 25 26 -27 31 32 33 0
19 -20 -21 25 -26 27 31 -32 -33 0
19 -20 -21 25 -26 27 -31 32 -33 0
19 -20 -21 25 -26 27 -31 -32 33 0
19 -20 -21 25 -26 27 -31 -32 -33 0
19 -20 -21 25 -26 -27 31 32 -33 0
19 -20 -21 25 -26 -27 31 -32 33 0
19 -20 -21 25 -26 -27 31 -32 -33 0
19 -20 -21 25 -26 -27 -31 32 33 0
19 -20 -21 25 -26 -27 -31 32 -33 0
19 -20 -21 25 -26 -27 -31 -32 33 0
19 -20 -21 25 -26 -27 -31 -32 -33 0
19 -20 -21 -25 26 27 31 32 33 0
19 -20 -21 -25 -26 27 31 32 -33 0
19 -20 -21 -25 -26 27 31 -32 33 0
19 -20 -21 -25 -26 27 31 -32 -33 0
19 -20 -21 -25 -26 27 -31 32 33 0
19 -20 -21 -25 -26 27 -31 32 -33 0
19 -20 -21 -25 -26 27 -31 -32 33 0
19 -20 -21 -25 -26 27 -31 -32 -33 0
19 -20 -21 -25 -26 -27 31 32 33 0
19 -20 -21 -25 -26 -27 31 32 -33 0
19 -20 -21 -25 -26 -27 31 -32 33 0
19 -20 -21 -25 -26 -27 31 -32 -33 0
19 -20 -21 -25 -26 -27 -31 32 33 0
19 -20 -21 -25 -26 -27 -31 32 -33 0
19 -20 -21 -25 -26 -27 -31 -32 33 0
19 -20 -21 -25 -26 -27 -31 -32 -33 0
-19 20 21 25 26 27 31 -32 -33 0
-19 20 21 25 26 27 -31 32 -33 0
-19 20 21 25 26 27 -31 -32 33 0
-19 20 21 25 26 -27 31 32 -33 0
-19 20 21 25 26 -27 31 -32 33 0
-19 20 21 25 26 -27 -31 32 33 0
-19 20 21 25 -26 27 31 32 33 0
-19 20 21 25 -26 27 -31 -32 -33 0
-19 20 21 25 -26 -27 31 -32 -33 0
-19 20 21 25 -26 -27 -31 32 -33 0
-19 20 21 25 -26 -27 -31 -32 33 0
-19 20 21 25 -26 -27 -31 -32 -33 0
-19 20 21 -25 26 27 31 32 -33 0
-19 20 21 -25 26 27 31 -32 33 0
-19 20 21 -25 26 27 -31 32 33 0
-19 20 21 -25 26 -27 31 32 33 0
-19 20 21 -25 -26 27 31 -32 -33 0
-19 20 21 -25 -26 27 -31 32 -33 0
-19 20 21 -25 -26 27 -31 -32 33 0
-19 20 21 -25 -26 27 -31 -32 -33 0
-19 20 21 -25 -26 -27 31 32 -33 0
-19 20 21 -25 -26 -27 31 -32 33 0
-19 20 21 -25 -26 -27 31 -32 -33 0
-19 20 21 -25 -26 -27 -31 32 33 0
-19 20 21 -25 -26 -27 -31 32 -33 0
-19 20 21 -25 -26 -27 -31 -32 33 0
-19 20 21 -25 -26 -27 -31 -32 -33 0
-19 20 -21 25 26 27 31 32 -33 0
-19 20 -21 25 26 27 31 -32 33 0
-19 20 -21 25 26 27 -31 32 33 0
-19 20 -21 25 26 -27 31 32 33 0
-19 20 -21 25 -26 27 31 -32 -33 0
-19 20 -21 25 -26 27 -31 32 -33 0
-19 20 -21 25 -26 27 -31 -32 33 0
-19 20 -21 25 -26 27 -31 -32 -33 0
-19 20 -21 25 -26 -27 31 32 -33 0
-19 20 -21 25 -26 -27 31 -32 33 0
-19 20 -21 25 -26 -27 31 -32 -33 0
-19 20 -21 25 -26 -27 -31 32 33 0
-19 20 -21 25 -26 -27 -31 32 -33 0
-19 20 -21 25 -26 -27 -31 -32 33 0
-19 20 -21 25 -26 -27 -31 -32 -33 0
-19 20 -21 -25 26 27 31 32 33 0
-19 20 -21 -25 -26 27 31 32 -33 0
-19 20 -21 -25 -26 27 31 -32 33 0
-19 20 -21 -25 -26 27 31 -32 -33 0
-19 20 -21 -25 -26 27 -31 32 33 0
-19 20 -21 -25 -26 27 -31 32 -33 0
-19 20 -21 -25 -26 27 -31 -32 33 0
-19 20 -21 -25 -26 27 -31 -32 -33 0
-19 20 -21 -25 -26 -27 31 32 33 0
-19 20 -21 -25 -26 -27 31 32 -33 0
-19 20 -21 -25 -26 -27 31 -32 33 0
-19 20 -21 -25 -26 -27 31 -32 -33 0
-19 20 -21 -25 -26 -27 -31 32 33 0
-19 20 -21 -25 -26 -27 -31 32 -33 0
-19 20 -21 -25 -26 -27 -31 -32 33 0
-19 20 -21 -25 -26 -27 -31 -32 -33 0
-19 -20 21 25 26 27 31 32 -33 0
-19 -20 21 25 26 27 31 -32 33 0
-19 -20 21 25 26 27 -31 32 33 0
-19 -20 21 25 26 -27 31 32 33 0
-19 -20 21 25 -26 27 31 -32 -33 0
-19 -20 21 25 -26 27 -31 32 -33 0
-19 -20 21 25 -26 27 -31 -32 33 0
-19 -20 21 25 -26 27 -31 -32 -33 0
-19 -20 21 25 -26 -27 31 32 -33 0
-19 -20 21 25 -26 -27 31 -32 33 0
-19 -20 21 25 -26 -27 31 -32 -33 0
-19 -20 21 25 -26 -27 -31 32 33 0
-19 -20 21 25 -26 -27 -31 32 -33 0
-19 -20 21 25 -26 -27 -31 -32 33 0
-19 -20 21 25 -26 -27 -31 -32 -33 0
-19 -20 21 -25 26 27 31 32 33 0
-19 -20 21 -25 -26 27 31 32 -33 0
-19 -20 21 -25 -26 27 31 -32 33 0
-19 -20 21 -25 -26 27 31 -32 -33 0
-19 -20 21 -25 -26 27 -31 32 33 0
-19 -20 21 -25 -26 27 -31 32 -33 0
-19 -20 21 -25 -26 27 -31 -32 33 0
-19 -20 21 -25 -26 27 -31 -32 -33 0
-19 -20 21 -25 -26 -27 31 32 33 0
-19 -20 21 -25 -26 -27 31 32 -33 0
-19 -20 21 -25 -26 -27 31 -32 33 0
-19 -20 21 -25 -26 -27 31 -32 -33 0
-19 -20 21 -25 -26 -27 -31 32 33 0
-19 -20 21 -25 -26 -27 -31 32 -33 0
-19 -20 21 -25 -26 -27 -31 -32 33 0
-19 -20 21 -25 -26 -27 -31 -32 -33 0
-19 -20 -21 25 26 27 31 32 33 0
-19 -20 -21 25 -26 27 31 32 -33 0
-19 -20 -21 25 -26 27 31 -32 33 0
-19 -20 -21 25 -26 27 31 -32 -33 0
-19 -20 -21 25 -26 27 -31 32 33 0
-19 -20 -21 25 -26 27 -31 32 -33 0
-19 -20 -21 25 -26 27 -31 -32 33 0
-19 -20 -21 25 -26 27 -31 -32 -33 0
-19 -20 -21 25 -26 -27 31 32 33 0
-19 -20 -21 25 -26 -27 31 32 -33 0
-19 -20 -21 25 -26 -27 31 -32 33 0
-19 -20 -21 25 -26 -27 31 -32 -33 0
-19 -20 -21 25 -26 -27 -31 32 33 0
-19 -20 -21 25 -26 -27 -31 32 -33 0
-19 -20 -21 25 -26 -27 -31 -32 33 0
-19 -20 -21 25 -26 -27 -31 -32 -33 0
-19 -20 -21 -25 -26 27 31 32 33 0
-19 -20 -21 -25 -26 27 31 32 -33 0
-19 -20 -21 -25 -26 27 31 -32 33 0
-19 -20 -21 -25 -26 27 31 -32 -33 0
-19 -20 -21 -25 -26 27 -31 32 33 0
-19 -20 -21 -25 -26 27 -31 32 -33 0
-19 -20 -21 -25 -26 27 -31 -32 33 0
-19 -20 -21 -25 -26 27 -31 -32 -33 0
-19 -20 -21 -25 -26 -27 31 32 33 0
-19 -20 -21 -25 -26 -27 31 32 -33 0
-19 -20 -21 -25 -26 -27 31 -32 33 0
-19 -20 -21 -25 -26 -27 31 -32 -33 0
-19 -20 -21 -25 -26 -27 -31 32 33 0
-19 -20 -21 -25 -26 -27 -31 32 -33 0
-19 -20 -21 -25 -26 -27 -31 -32 33 0
-19 -20 -21 -25 -26 -27 -31 -32 -33 0
20 21 22 26 27 28 -32 -33 -34 0
20 21 22 26 27 -28 32 -33 -34 0
20 21 22 26 27 -28 -32 33 -34 0
20 21 22 26 27 -28 -32 -33 34 0
20 21 22 26 -27 28 32 33 34 0
20 21 22 26 -27 28 32 33 -34 0
20 21 22 26 -27 28 32 -33 34 0
20 21 22 26 -27 28 -32 33 34 0
20 21 22 26 -27 -28 32 33 34 0
20 21 22 26 -27 -28 -32 -33 -34 0
20 21 22 -26 27 28 32 -33 -34 0
20 21 22 -26 27 28 -32 33 -34 0
20 21 22 -26 27 28 -32 -33 34 0
20 21 22 -26 27 -28 32 33 -34 0
20 21 22 -26 27 -28 32 -33 34 0
20 21 22 -26 27 -28 -32 33 34 0
20 21 22 -26 -27 28 32 33 34 0
20 21 22 -26 -27 28 -32 -33 -34 0
20 21 22 -26 -27 -28 32 -33 -34 0
20 21 22 -26 -27 -28 -32 33 -34 0
20 21 22 -26 -27 -28 -32 -33 34 0
20 21 22 -26 -27 -28 -32 -33 -34 0
20 21 -22 26 27 28 32 -33 -34 0
20 21 -22 26 27 28 -32 33 -34 0
20 21 -22 26 27 28 -32 -33 34 0
20 21 -22 26 27 -28 32 33 -34 0
20 21 -22 26 27 -28 32 -33 34 0
20 21 -22 26 27 -28 -32 33 34 0
20 21 -22 26 -27 28 32 33 34 0
20 21 -22 26 -27 28 -32 -33 -34 0
20 21 -22 26 -27 -28 32 -33 -34 0
20 21 -22 26 -27 -28 -32 33 -34 0
20 21 -22 26 -27 -28 -32 -33 34 0
20 21 -22 26 -27 -28 -32 -33 -34 0
20 21 -22 -26 27 28 32 33 -34 0
20 21 -22 -26 27 28 32 -33 34 0
20 21 -22 -26 27 28 -32 33 34 0
20 21 -22 -26 27 -28 32 33 34 0
20 21 -22 -26 -27 28 32 -33 -34 0
20 21 -22 -26 -27 28 -32 33 -34 0
20 21 -22 -26 -27 28 -32 -33 34 0
20 21 -22 -26 -27 28 -32 -33 -34 0
20 21 -22 -26 -27 -28 32 33 -34 0
20 21 -22 -26 -27 -28 32 -33 34 0
20 21 -22 -26 -27 -28 32 -33 -34 0
20 21 -22 -26 -27 -28 -32 33 34 0
20 21 -22 -26 -27 -28 -32 33 -34 0
20 21 -22 -26 -27 -28 -32 -33 34 0
20 21 -22 -26 -27 -28 -32 -33 -34 0
20 -21 22 26 27 28 32 -33 -34 0
20 -21 22 26 27 28 -32 33 -34 0
20 -21 22 26 27 28 -32 -33 34 0
20 -21 22 26 27 -28 32 33 -34 0
20 -21 22 26 27 -28 32 -33 34 0
20 -21 22 26 27 -28 -32 33 34 0
20 -21 22 26 -27 28 32 33 34 0
20 -21 22 26 -27 28 -32 -33 -34 0
20 -21 22 26 -27 -28 32 -33 -34 0
20 -21 22 26 -27 -28 -32 33 -34 0
20 -21 22 26 -27 -28 -32 -33 34 0
20 -21 22 26 -27 -28 -32 -33 -34 0
20 -21 22 -26 27 28 32 33 -34 0
20 -21 22 -26 27 28 32 -33 34 0
20 -21 22 -26 27 28 -32 33 34 0
20 -21 22 -26 27 -28 32 33 34 0
20 -21 22 -26 -27 28 32 -33 -34 0
20 -21 22 -26 -27 28 -32 33 -34 0
20 -21 22 -26 -27 28 -32 -33 34 0
20 -21 22 -26 -27 28 -32 -33 -34 0
20 -21 22 -26 -27 -28 32 33 -34 0
20 -21 22 -26 -27 -28 32 -33 34 0
20 -21 22 -26 -27 -28 32 -33 -34 0
20 -21 22 -26 -27 -28 -32 33 34 0
20 -21 22 -26 -27 -28 -32 33 -34 0
20 -21 22 -26 -27 -28 -32 -33 34 0
20 -21 22 -26 -27 -28 -32 -33 -34 0
20 -21 -22 26 27 28 32 33 -34 0
20 -21 -22 26 27 28 32 -33 34 0
20 -21 -22 26 27 28 -32 33 34 0
20 -21 -22 26 27 -28 32 33 34 0
20 -21 -22 26 -27 28 32 -33 -34 0
20 -21 -22 26 -27 28 -32 33 -34 0
20 -21 -22 26 -27 28 -32 -33 34 0
20 -21 -22 26 -27 28 -32 -33 -34 0
20 -21 -22 26 -27 -28 32 33 -34 0
20 -21 -22 26 -27 -28 32 -33 34 0
20 -21 -22 26 -27 -28 32 -33 -34 0
20 -21 -22 26 -27 -28 -32 33 34 0
20 -21 -22 26 -27 -28 -32 33 -34 0
20 -21 -22 26 -27 -28 -32 -33 34 0
20 -21 -22 26 -27 -28 -32 -33 -34 0
20 -21 -22 -26 27 28 32 33 34 0
20 -21 -22 -26 -27 28 32 33 -34 0
20 -21 -22 -26 -27 28 32 -33 34 0
20 -21 -22 -26 -27 28 32 -33 -34 0
20 -21 -22 -26 -27 28 -32 33 34 0
20 -21 -22 -26 -27 28 -32 33 -34 0
20 -21 -22 -26 -27 28 -32 -33 34 0
20 -21 -22 -26 -27 28 -32 -33 -34 0
20 -21 -22 -26 -27 -28 32 33 34 0
20 -21 -22 -26 -27 -28 32 33 -34 0
20 -21 -22 -26 -27 -28 32 -33 34 0
20 -21 -22 -26 -27 -28 32 -33 -34 0
20 -21 -22 -26 -27 -28 -32 33 34 0
20 -21 -22 -26 -27 -28 -32 33 -34 0
20 -21 -22 -26 -27 -28 -32 -33 34 0
20 -21 -22 -26 -27 -28 -32 -33 -34 0
-20 21 22 26 27 28 32 -33 -34 0
-20 21 22 26 27 28 -32 33 -34 0
-20 21 22 26 27 28 -32 -33 34 0
-20 21 22 26 27 -28 32 33 -34 0
-20 21 22 26 27 -28 32 -33 34 0
-20 21 22 26 27 -28 -32 33 34 0
-20 21 22 26 -27 28 32 33 34 0
-20 21 22 26 -27 28 -32 -33 -34 0
-20 21 22 26 -27 -28 32 -33 -34 0
-20 21 22 26 -27 -28 -32 33 -34 0
-20 21 22 26 -27 -28 -32 -33 34 0
-20 21 22 26 -27 -28 -32 -33 -34 0
-20 21 22 -26 27 28 32 33 -34 0
-20 21 22 -26 27 28 32 -33 34 0
-20 21 22 -26 27 28 -32 33 34 0
-20 21 22 -26 27 -28 32 33 34 0
-20 21 22 -26 -27 28 32 -33 -34 0
-20 21 22 -26 -27 28 -32 33 -34 0
-20 21 22 -26 -27 28 -32 -33 34 0
-20 21 22 -26 -27 28 -32 -33 -34 0
-20 21 22 -26 -27 -28 32 33 -34 0
-20 21 22 -26 -27 -28 32 -33 34 0
-20 21 22 -26 -27 -28 32 -33 -34 0
-20 21 22 -26 -27 -28 -32 33 34 0
-20 21 22 -26 -27 -28 -32 33 -34 0
-20 21 22 -26 -27 -28 -32 -33 34 0
-20 21 22 -26 -27 -28 -32 -33 -34 0
-20 21 -22 26 27 28 32 33 -34 0
-20 21 -22 26 27 28 32 -33 34 0
-20 21 -22 26 27 28 -32 33 34 0
-20 21 -22 26 27 -28 32 33 34 0
-20 21 -22 26 -27 28 32 -33 -34 0
-20 21 -22 26 -27 28 -32 33 -34 0
-20 21 -22 26 -27 28 -32 -33 34 0
-20 21 -22 26 -27 28 -32 -33 -34 0
-20 21 -22 26 -27 -28 32 33 -34 0
-20 21 -22 26 -27 -28 32 -33 34 0
-20 21 -22 26 -27 -28 32 -33 -34 0
-20 21 -22 26 -27 -28 -32 33 34 0
-20 21 -22 26 -27 -28 -32 33 -34 0
-20 21 -22 26 -27 -28 -32 -33 34 0
-20 21 -22 26 -27 -28 -32 -33 -34 0
-20 21 -22 -26 27 28 32 33 34 0
-20 21 -22 -26 -27 28 32 33 -34 0
-20 21 -22 -26 -27 28 32 -33 34 0
-20 21 -22 -26 -27 28 32 -33 -34 0
-20 21 -22 -26 -27 28 -32 33 34 0
-20 21 -22 -26 -27 28 -32 33 -34 0
-20 21 -22 -26 -27 28 -32 -33 34 0
-20 21 -22 -26 -27 28 -32 -33 -34 0
-20 21 -22 -26 -27 -28 32 33 34 0
-20 21 -22 -26 -27 -28 32 33 -34 0
-20 21 -22 -26 -27 -28 32 -33 34 0
-20 21 -22 -26 -27 -28 32 -33 -34 0
-20 21 -22 -26 -27 -28 -32 33 34 0
-20 21 -22 -26 -27 -28 -32 33 -34 0
-20 21 -22 -26 -27 -28 -32 -33 34 0
-20 21 -22 -26 -27 -28 -32 -33 -34 0
-20 -21 22 26 27 28 32 33 -34 0
-20 -21 22 26 27 28 32 -33 34 0
-20 -21 22 26 27 28 -32 33 34 0
-20 -21 22 26 27 -28 32 33 34 0
-20 -21 22 26 -27 28 32 -33 -34 0
-20 -21 22 26 -27 28 -32 33 -34 0
-20 -21 22 26 -27 28 -32 -33 34 0
-20 -21 22 26 -27 28 -32 -33 -34 0
-20 -21 22 26 -27 -28 32 33 -34 0
-20 -21 22 26 -27 -28 32 -33 34 0
-20 -21 22 26 -27 -28 32 -33 -34 0
-20 -21 22 26 -27 -28 -32 33 34 0
-20 -21 22 26 -27 -28 -32 33 -34 0
-20 -21 22 26 -27 -28 -32 -33 34 0
-20 -21 22 26 -27 -28 -32 -33 -34 0
-20 -21 22 -26 27 28 32 33 34 0
-20 -21 22 -26 -27 28 32 33 -34 0
-20 -21 22 -26 -27 28 32 -33 34 0
-20 -21 22 -26 -27 28 32 -33 -34 0
-20 -21 22 -26 -27 28 -32 33 34 0
-20 -21 22 -26 -27 28 -32 33 -34 0
-20 -21 22 -26 -27 28 -32 -33 34 0
-20 -21 22 -26 -27 28 -32 -33 -34 0
-20 -21 22 -26 -27 -28 32 33 34 0
-20 -21 22 -26 -27 -28 32 33 -34 0
-20 -21 22 -26 -27 -28 32 -33 34 0
-20 -21 22 -26 -27 -28 32 -33 -34 0
-20 -21 22 -26 -27 -28 -32 33 34 0
-20 -21 22 -26 -27 -28 -32 33 -34 0
-20 -21 22 -26 -27 -28 -32 -33 34 0
-20 -21 22 -26 -27 -28 -32 -33 -34 0
-20 -21 -22 26 27 28 32 33 34 0
-20 -21 -22 26 -27 28 32 33 -34 0
-20 -21 -22 26 -27 28 32 -33 34 0
-20 -21 -22 26 -27 28 32 -33 -34 0
-20 -21 -22 26 -27 28 -32 33 34 0
-20 -21 -22 26 -27 28 -32 33 -34 0
-20 -21 -22 26 -27 28 -32 -33 34 0
-20 -21 -22 26 -27 28 -32 -33 -34 0
-20 -21 -22 26 -27 -28 32 33 34 0
-20 -21 -22 26 -27 -28 32 33 -34 0
-20 -21 -22 26 -27 -28 32 -33 34 0
-20 -21 -22 26 -27 -28 32 -33 -34 0
-20 -21 -22 26 -27 -28 -32 33 34 0
-20 -21 -22 26 -27 -28 -32 33 -34 0
-20 -21 -22 26 -27 -28 -32 -33 34 0
-20 -21 -22 26 -27 -28 -32 -33 -34 0
-20 -21 -22 -26 -27 28 32 33 34 0
-20 -21 -22 -26 -27 28 32 33 -34 0
-20 -21 -22 -26 -27 28 32 -33 34 0
-20 -21 -22 -26 -27 28 32 -33 -34 0
-20 -21 -22 -26 -27 28 -32 33 34 0
-20 -21 -22 -26 -27 28 -32 33 -34 0
-20 -21 -22 -26 -27 28 -32 -33 34 0
-20 -21 -22 -26 -27 28 -32 -33 -34 0
-20 -21 -22 -26 -27 -28 32 33 34 0
-20 -21 -22 -26 -27 -28 32 33 -34 0
-20 -21 -22 -26 -27 -28 32 -33 34 0
-20 -21 -22 -26 -27 -28 32 -33 -34 0
-20 -21 -22 -26 -27 -28 -32 33 34 0
-20 -21 -22 -26 -27 -28 -32 33 -34 0
-20 -21 -22 -26 -27 -28 -32 -33 34 0
-20 -21 -22 -26 -27 -28 -32 -33 -34 0
21 22 23 27 28 29 -33 -34 -35 0
21 22 23 27 28 -29 33 -34 -35 0
21 22 23 27 28 -29 -33 34 -35 0
21 22 23 27 28 -29 -33 -34 35 0
21 22 23 27 -28 29 33 34 35 0
21 22 23 27 -28 29 33 34 -35 0
21 22 23 27 -28 29 33 -34 35 0
21 22 23 27 -28 29 -33 34 35 0
21 22 23 27 -28 -29 33 34 35 0
21 22 23 27 -28 -29 -33 -34 -35 0
21 22 23 -27 28 29 33 -34 -35 0
21 22 23 -27 28 29 -33 34 -35 0
21 22 23 -27 28 29 -33 -34 35 0
21 22 23 -27 28 -29 33 34 -35 0
21 22 23 -27 28 -29 33 -34 35 0
21 22 23 -27 28 -29 -33 34 35 0
21 22 23 -27 -28 29 33 34 35 0
21 22 23 -27 -28 29 -33 -34 -35 0
21 22 23 -27 -28 -29 33 -34 -35 0
21 22 23 -27 -28 -29 -33 34 -35 0
21 22 23 -27 -28 -29 -33 -34 35 0
21 22 23 -27 -28 -29 -33 -34 -35 0
21 22 -23 27 28 29 33 -34 -35 0
21 22 -23 27 28 29 -33 34 -35 0
21 22 -23 27 28 29 -33 -34 35 0
21 22 -23 27 28 -29 33 34 -35 0
21 22 -23 27 28 -29 33 -34 35 0
21 22 -23 27 28 -29 -33 34 35 0
21 22 -23 27 -28 29 33 34 35 0
21 22 -23 27 -28 29 -33 -34 -35 0
21 22 -23 27 -28 -29 33 -34 -35 0
21 22 -23 27 -28 -29 -33 34 -35 0
21 22 -23 27 -28 -29 -33 -34 35 0
21 22 -23 27 -28 -29 -33 -34 -35 0
21 22 -23 -27 28 29 33 34 -35 0
21 22 -23 -27 28 29 33 -34 35 0
21 22 -23 -27 28 29 -33 34 35 0
21 22 -23 -27 28 -29 33 34 35 0
21 22 -23 -27 -28 29 33 -34 -35 0
21 22 -23 -27 -28 29 -33 34 -35 0
21 22 -23 -27 -28 29 -33 -34 35 0
21 22 -23 -27 -28 29 -33 -34 -35 0
21 22 -23 -27 -28 -29 33 34 -35 0
21 22 -23 -27 -28 -29 33 -34 35 0
21 22 -23 -27 -28 -29 33 -34 -35 0
21 22 -23 -27 -28 -29 -33 34 35 0
21 22 -23 -27 -28 -29 -33 34 -35 0
21 22 -23 -27 -28 -29 -33 -34 35 0
21 22 -23 -27 -28 -29 -33 -34 -35 0
21 -22 23 27 28 29 33 -34 -35 0
21 -22 23 27 28 29 -33 34 -35 0
21 -22 23 27 28 29 -33 -34 35 0
21 -22 23 27 28 -29 33 34 -35 0
21 -22 23 27 28 -29 33 -34 35 0
21 -22 23 27 28 -29 -33 34 35 0
21 -22 23 27 -28 29 33 34 35 0
21 -22 23 27 -28 29 -33 -34 -35 0
21 -22 23 27 -28 -29 33 -34 -35 0
21 -22 23 27 -28 -29 -33 34 -35 0
21 -22 23 27 -28 -29 -33 -34 35 0
21 -22 23 27 -28 -29 -33 -34 -35 0
21 -22 23 -27 28 29 33 34 -35 0
21 -22 23 -27 28 29 33 -34 35 0
21 -22 23 -27 28 29 -33 34 35 0
21 -22 23 -27 28 -29 33 34 35 0
21 -22 23 -27 -28 29 33 -34 -35 0
21 -22 23 -27 -28 29 -33 34 -35 0
21 -22 23 -27 -28 29 -33 -34 35 0
21 -22 23 -27 -28 29 -33 -34 -35 0
21 -22 23 -27 -28 -29 33 34 -35 0
21 -22 23 -27 -28 -29 33 -34 35 0
21 -22 23 -27 -28 -29 33 -34 -35 0
21 -22 23 -27 -28 -29 -33 34 35 0
21 -22 23 -27 -28 -29 -33 34 -35 0
21 -22 23 -27 -28 -29 -33 -34 35 0
21 -22 23 -27 -28 -29 -33 -34 -35 0
21 -22 -23 27 28 29 33 34 -35 0
21 -22 -23 27 28 29 33 -34 35 0
21 -22 -23 27 28 29 -33 34 35 0
21 -22 -23 27 28 -29 33 34 35 0
21 -22 -23 27 -28 29 33 -34 -35 0
21 -22 -23 27 -28 29 -33 34 -35 0
21 -22 -23 27 -28 29 -33 -34 35 0
21 -22 -23 27 -28 29 -33 -34 -35 0
21 -22 -23 27 -28 -29 33 34 -35 0
21 -22 -23 27 -28 -29 33 -34 35 0
21 -22 -23 27 -28 -29 33 -34 -35 0
21 -22 -23 27 -28 -29 -33 34 35 0
21 -22 -23 27 -28 -29 -33 34 -35 0
21 -22 -23 27 -28 -29 -33 -34 35 0
21 -22 -23 27 -28 -29 -33 -34 -35 0
21 -22 -23 -27 28 29 33 34 35 0
21 -22 -23 -27 -28 29 33 34 -35 0
21 -22 -23 -27 -28 29 33 -34 35 0
21 -22 -23 -27 -28 29 33 -34 -35 0
21 -22 -23 -27 -28 29 -33 34 35 0
21 -22 -23 -27 -28 29 -33 34 -35 0
21 -22 -23 -27 -28 29 -33 -34 35 0
21 -22 -23 -27 -28 29 -33 -34 -35 0
21 -22 -23 -27 -28 -29 33 34 35 0
21 -22 -23 -27 -28 -29 33 34 -35 0
21 -22 -23 -27 -28 -29 33 -34 35 0
21 -22 -23 -27 -28 -29 33 -34 -35 0
21 -22 -23 -27 -28 -29 -33 34 35 0
21 -22 -23 -27 -28 -29 -33 34 -35 0
21 -22 -23 -27 -28 -29 -33 -34 35 0
21 -22 -23 -27 -28 -29 -33 -34 -35 0
-21 22 23 27 28 29 33 -34 -35 0
-21 22 23 27 28 29 -33 34 -35 0
-21 22 23 27 28 29 -33 -34 35 0
-21 22 23 27 28 -29 33 34 -35 0
-21 22 23 27 28 -29 33 -34 35 0
-21 22 23 27 28 -29 -33 34 35 0
-21 22 23 27 -28 29 33 34 35 0
-21 22 23 27 -28 29 -33 -34 -35 0
-21 22 23 27 -28 -29 33 -34 -35 0
-21 22 23 27 -28 -29 -33 34 -35 0
-21 22 23 27 -28 -29 -33 -34 35 0
-21 22 23 27 -28 -29 -33 -34 -35 0
-21 22 23 -27 28 29 33 34 -35 0
-21 22 23 -27 28 29 33 -34 35 0
-21 22 23 -27 28 29 -33 34 35 0
-21 22 23 -27 28 -29 33 34 35 0
-21 22 23 -27 -28 29 33 -34 -35 0
-21 22 23 -27 -28 29 -33 34 -35 0
-21 22 23 -27 -28 29 -33 -34 35 0
-21 22 23 -27 -28 29 -33 -34 -35 0
-21 22 23 -27 -28 -29 33 34 -35 0
-21 22 23 -27 -28 -29 33 -34 35 0
-21 22 23 -27 -28 -29 33 -34 -35 0
-21 22 23 -27 -28 -29 -33 34 35 0
-21 22 23 -27 -28 -29 -33 34 -35 0
-21 22 23 -27 -28 -29 -33 -34 35 0
-21 22 23 -27 -28 -29 -33 -34 -35 0
-21 22 -23 27 28 29 33 34 -35 0
-21 22 -23 27 28 29 33 -34 35 0
-21 22 -23 27 28 29 -33 34 35 0
-21 22 -23 27 28 -29 33 34 35 0
-21 22 -23 27 -28 29 33 -34 -35 0
-21 22 -23 27 -28 29 -33 34 -35 0
-21 22 -23 27 -28 29 -33 -34 35 0
-21 22 -23 27 -28 29 -33 -34 -35 0
-21 22 -23 27 -28 -29 33 34 -35 0
-21 22 -23 27 -28 -29 33 -34 35 0
-21 22 -23 27 -28 -29 33 -34 -35 0
-21 22 -23 27 -28 -29 -33 34 35 0
-21 22 -23 27 -28 -29 -33 34 -35 0
-21 22 -23 27 -28 -29 -33 -34 35 0
-21 22 -23 27 -28 -29 -33 -34 -35 0
-21 22 -23 -27 28 29 33 34 35 0
-21 22 -23 -27 -28 29 33 34 -35 0
-21 22 -23 -27 -28 29 33 -34 35 0
-21 22 -23 -27 -28 29 33 -34 -35 0
-21 22 -23 -27 -28 29 -33 34 35 0
-21 22 -23 -27 -28 29 -33 34 -35 0
-21 22 -23 -27 -28 29 -33 -34 35 0
-21 22 -23 -27 -28 29 -33 -34 -35 0
-21 22 -23 -27 -28 -29 33 34 35 0
-21 22 -23 -27 -28 -29 33 34 -35 0
-21 22 -23 -27 -28 -29 33 -34 35 0
-21 22 -23 -27 -28 -29 33 -34 -35 0
-21 22 -23 -27 -28 -29 -33 34 35 0
-21 22 -23 -27 -28 -29 -33 34 -35 0
-21 22 -23 -27 -28 -29 -33 -34 35 0
-21 22 -23 -27 -28 -29 -33 -34 -35 0
-21 -22 23 27 28 29 33 34 -35 0
-21 -22 23 27 28 29 33 -34 35 0
-21 -22 23 27 28 29 -33 34 35 0
-21 -22 23 27 28 -29 33 34 35 0
-21 -22 23 27 -28 29 33 -34 -35 0
-21 -22 23 27 -28 29 -33 34 -35 0
-21 -22 23 27 -28 29 -33 -34 35 0
-21 -22 23 27 -28 29 -33 -34 -35 0
-21 -22 23 27 -28 -29 33 34 -35 0
-21 -22 23 27 -28 -29 33 -34 35 0
-21 -22 23 27 -28 -29 33 -34 -35 0
-21 -22 23 27 -28 -29 -33 34 35 0
-21 -22 23 27 -28 -29 -33 34 -35 0
-21 -22 23 27 -28 -29 -33 -34 35 0
-21 -22 23 27 -28 -29 -33 -34 -35 0
-21 -22 23 -27 28 29 33 34 35 0
-21 -22 23 -27 -28 29 33 34 -35 0
-21 -22 23 -27 -28 29 33 -34 35 0
-21 -22 23 -27 -28 29 33 -34 -35 0
-21 -22 23 -27 -28 29 -33 34 35 0
-21 -22 23 -27 -28 29 -33 34 -35 0
-21 -22 23 -27 -28 29 -33 -34 35 0
-21 -22 23 -27 -28 29 -33 -34 -35 0
-21 -22 23 -27 -28 -29 33 34 35 0
-21 -22 23 -27 -28 -29 33 34 -35 0
-21 -22 23 -27 -28 -29 33 -34 35 0
-21 -22 23 -27 -28 -29 33 -34 -35 0
-21 -22 23 -27 -28 -29 -33 34 35 0
-21 -22 23 -27 -28 -29 -33 34 -35 0
-21 -22 23 -27 -28 -29 -33 -34 35 0
-21 -22 23 -27 -28 -29 -33 -34 -35 0
-21 -22 -23 27 28 29 33 34 35 0
-21 -22 -23 27 -28 29 33 34 -35 0
-21 -22 -23 27 -28 29 33 -34 35 0
-21 -22 -23 27 -28 29 33 -34 -35 0
-21 -22 -23 27 -28 29 -33 34 35 0
-21 -22 -23 27 -28 29 -33 34 -35 0
-21 -22 -23 27 -28 29 -33 -34 35 0
-21 -22 -23 27 -28 29 -33 -34 -35 0
-21 -22 -23 27 -28 -29 33 34 35 0
-21 -22 -23 27 -28 -29 33 34 -35 0
-21 -22 -23 27 -28 -29 33 -34 35 0
-21 -22 -23 27 -28 -29 33 -34 -35 0
-21 -22 -23 27 -28 -29 -33 34 35 0
-21 -22 -23 27 -28 -29 -33 34 -35 0
-21 -22 -23 27 -28 -29 -33 -34 35 0
-21 -22 -23 27 -28 -29 -33 -34 -35 0
-21 -22 -23 -27 -28 29 33 34 35 0
-21 -22 -23 -27 -28 29 33 34 -35 0
-21 -22 -23 -27 -28 29 33 -34 35 0
-21 -22 -23 -27 -28 29 33 -34 -35 0
-21 -22 -23 -27 -28 29 -33 34 35 0
-21 -22 -23 -27 -28 29 -33 34 -35 0
-21 -22 -23 -27 -28 29 -33 -34 35 0
-21 -22 -23 -27 -28 29 -33 -34 -35 0
-21 -22 -23 -27 -28 -29 33 34 35 0
-21 -22 -23 -27 -28 -29 33 34 -35 0
-21 -22 -23 -27 -28 -29 33 -34 35 0
-21 -22 -23 -27 -28 -29 33 -34 -35 0
-21 -22 -23 -27 -28 -29 -33 34 35 0
-21 -22 -23 -27 -28 -29 -33 34 -35 0
-21 -22 -23 -27 -28 -29 -33 -34 35 0
-21 -22 -23 -27 -28 -29 -33 -34 -35 0
22 23 24 28 29 30 -34 -35 -36 0
22 23 24 28 29 -30 34 -35 -36 0
22 23 24 28 29 -30 -34 35 -36 0
22 23 24 28 29 -30 -34 -35 36 0
22 23 24 28 -29 30 34 35 36 0
22 23 24 28 -29 30 34 35 -36 0
22 23 24 28 -29 30 34 -35 36 0
22 23 24 28 -29 30 -34 35 36 0
22 23 24 28 -29 -30 34 35 36 0
22 23 24 28 -29 -30 -34 -35 -36 0
22 23 24 -28 29 30 34 -35 -36 0
22 23 24 -28 29 30 -34 35 -36 0
22 23 24 -28 29 30 -34 -35 36 0
22 23 24 -28 29 -30 34 35 -36 0
22 23 24 -28 29 -30 34 -35 36 0
22 23 24 -28 29 -30 -34 35 36 0
22 23 24 -28 -29 30 34 35 36 0
22 23 24 -28 -29 30 -34 -35 -36 0
22 23 24 -28 -29 -30 34 -35 -36 0
22 23 24 -28 -29 -30 -34 35 -36 0
22 23 24 -28 -29 -30 -34 -35 36 0
22 23 24 -28 -29 -30 -34 -35 -36 0
22 23 -24 28 29 30 34 -35 -36 0
22 23 -24 28 29 30 -34 35 -36 0
22 23 -24 28 29 30 -34 -35 36 0
22 23 -24 28 29 -30 34 35 -36 0
22 23 -24 28 29 -30 34 -35 36 0
22 23 -24 28 29 -30 -34 35 36 0
22 23 -24 28 -29 30 34 35 36 0
22 23 -24 28 -29 30 -34 -35 -36 0
22 23 -24 28 -29 -30 34 -35 -36 0
22 23 -24 28 -29 -30 -34 35 -36 0
22 23 -24 28 -29 -30 -34 -35 36 0
22 23 -24 28 -29 -30 -34 -35 -36 0
22 23 -24 -28 29 30 34 35 -36 0
22 23 -24 -28 29 30 34 -35 36 0
22 23 -24 -28 29 30 -34 35 36 0
22 23 -24 -28 29 -30 34 35 36 0
22 23 -24 -28 -29 30 34 -35 -36 0
22 23 -24 -28 -29 30 -34 35 -36 0
22 23 -24 -28 -29 30 -34 -35 36 0
22 23 -24 -28 -29 30 -34 -35 -36 0
22 23 -24 -28 -29 -30 34 35 -36 0
22 23 -24 -28 -29 -30 34 -35 36 0
22 23 -24 -28 -29 -30 34 -35 -36 0
22 23 -24 -28 -29 -30 -34 35 36 0
22 23 -24 -28 -29 -30 -34 35 -36 0
22 23 -24 -28 -29 -30 -34 -35 36 0
22 23 -24 -28 -29 -30 -34 -35 -36 0
22 -23 24 28 29 30 34 -35 -36 0
22 -23 24 28 29 30 -34 35 -36 0
22 -23 24 28 29 30 -34 -35 36 0
22 -23 24 28 29 -30 34 35 -36 0
22 -23 24 28 29 -30 34 -35 36 0
22 -23 24 28 29 -30 -34 35 36 0
22 -23 24 28 -29 30 34 35 36 0
22 -23 24 28 -29 30 -34 -35 -36 0
22 -23 24 28 -29 -30 34 -35 -36 0
22 -23 24 28 -29 -30 -34 35 -36 0
22 -23 24 28 -29 -30 -34 -35 36 0
22 -23 24 28 -29 -30 -34 -35 -36 0
22 -23 24 -28 29 30 34 35 -36 0
22 -23 24 -28 29 30 34 -35 36 0
22 -23 24 -28 29 30 -34 35 36 0
22 -23 24 -28 29 -30 34 35 36 0
22 -23 24 -28 -29 30 34 -35 -36 0
22 -23 24 -28 -29 30 -34 35 -36 0
22 -23 24 -28 -29 30 -34 -35 36 0
22 -23 24 -28 -29 30 -34 -35 -36 0
22 -23 24 -28 -29 -30 34 35 -36 0
22 -23 24 -28 -29 -30 34 -35 36 0
22 -23 24 -28 -29 -30 34 -35 -36 0
22 -23 24 -28 -29 -30 -34 35 36 0
22 -23 24 -28 -29 -30 -34 35 -36 0
22 -23 24 -28 -29 -30 -34 -35 36 0
22 -23 24 -28 -29 -30 -34 -35 -36 0
22 -23 -24 28 29 30 34 35 -36 0
22 -23 -24 28 29 30 34 -35 36 0
22 -23 -24 28 29 30 -34 35 36 0
22 -23 -24 28 29 -30 34 35 36 0
22 -23 -24 28 -29 30 34 -35 -36 0
22 -23 -24 28 -29 30 -34 35 -36 0
22 -23 -24 28 -29 30 -34 -35 36 0
22 -23 -24 28 -29 30 -34 -35 -36 0
22 -23 -24 28 -29 -30 34 35 -36 0
22 -23 -24 28 -29 -30 34 -35 36 0
22 -23 -24 28 -29 -30 34 -35 -36 0
22 -23 -24 28 -29 -30 -34 35 36 0
22 -23 -24 28 -29 -30 -34 35 -36 0
22 -23 -24 28 -29 -30 -34 -35 36 0
22 -23 -24 28 -29 -30 -34 -35 -36 0
22 -23 -24 -28 29 30 34 35 36 0
22 -23 -24 -28 -29 30 34 35 -36 0
22 -23 -24 -28 -29 30 34 -35 36 0
22 -23 -24 -28 -29 30 34 -35 -36 0
22 -23 -24 -28 -29 30 -34 35 36 0
22 -23 -24 -28 -29 30 -34 35 -36 0
22 -23 -24 -28 -29 30 -34 -35 36 0
22 -23 -24 -28 -29 30 -34 -35 -36 0
22 -23 -24 -28 -29 -30 34 35 36 0
22 -23 -24 -28 -29 -30 34 35 -36 0
22 -23 -24 -28 -29 -30 34 -35 36 0
22 -23 -24 -28 -29 -30 34 -35 -36 0
22 -23 -24 -28 -29 -30 -34 35 36 0
22 -23 -24 -28 -29 -30 -34 35 -36 0
22 -23 -24 -28 -29 -30 -34 -35 36 0
22 -23 -24 -28 -29 -30 -34 -35 -36 0
-22 23 24 28 29 30 34 -35 -36 0
-22 23 24 28 29 30 -34 35 -36 0
-22 23 24 28 29 30 -34 -35 36 0
-22 23 24 28 29 -30 34 35 -36 0
-22 23 24 28 29 -30 34 -35 36 0
-22 23 24 28 29 -30 -34 35 36 0
-22 23 24 28 -29 30 34 35 36 0
-22 23 24 28 -29 30 -34 -35 -36 0
-22 23 24 28 -29 -30 34 -35 -36 0
-22 23 24 28 -29 -30 -34 35 -36 0
-22 23 24 28 -29 -30 -34 -35 36 0
-22 23 24 28 -29 -30 -34 -35 -36 0
-22 23 24 -28 29 30 34 35 -36 0
-22 23 24 -28 29 30 34 -35 36 0
-22 23 24 -28 29 30 -34 35 36 0
-22 23 24 -28 29 -30 34 35 36 0
-22 23 24 -28 -29 30 34 -35 -36 0
-22 23 24 -28 -29 30 -34 35 -36 0
-22 23 24 -28 -29 30 -34 -35 36 0
-22 23 24 -28 -29 30 -34 -35 -36 0
-22 23 24 -28 -29 -30 34 35 -36 0
-22 23 24 -28 -29 -30 34 -35 36 0
-22 23 24 -28 -29 -30 34 -35 -36 0
-22 23 24 -28 -29 -30 -34 35 36 0
-22 23 24 -28 -29 -30 -34 35 -36 0
-22 23 24 -28 -29 -30 -34 -35 36 0
-22 23 24 -28 -29 -30 -34 -35 -36 0
-22 23 -24 28 29 30 34 35 -36 0
-22 23 -24 28 29 30 34 -35 36 0
-22 23 -24 28 29 30 -34 35 36 0
-22 23 -24 28 29 -30 34 35 36 0
-22 23 -24 28 -29 30 34 -35 -36 0
-22 23 -24 28 -29 30 -34 35 -36 0
-22 23 -24 28 -29 30 -34 -35 36 0
-22 23 -24 28 -29 30 -34 -35 -36 0
-22 23 -24 28 -29 -30 34 35 -36 0
-22 23 -24 28 -29 -30 34 -35 36 0
-22 23 -24 28 -29 -30 34 -35 -36 0
-22 23 -24 28 -29 -30 -34 35 36 0
-22 23 -24 28 -29 -30 -34 35 -36 0
-22 23 -24 28 -29 -30 -34 -35 36 0
-22 23 -24 28 -29 -30 -34 -35 -36 0
-22 23 -24 -28 29 30 34 35 36 0
-22 23 -24 -28 -29 30 34 35 -36 0
-22 23 -24 -28 -29 30 34 -35 36 0
-22 23 -24 -28 -29 30 34 -35 -36 0
-22 23 -24 -28 -29 30 -34 35 36 0
-22 23 -24 -28 -29 30 -34 35 -36 0
-22 23 -24 -28 -29 30 -34 -35 36 0
-22 23 -24 -28 -29 30 -34 -35 -36 0
-22 23 -24 -28 -29 -30 34 35 36 0
-22 23 -24 -28 -29 -30 34 35 -36 0
-22 23 -24 -28 -29 -30 34 -35 36 0
-22 23 -24 -28 -29 -30 34 -35 -36 0
-22 23 -24 -28 -29 -30 -34 35 36 0
-22 23 -24 -28 -29 -30 -34 35 -36 0
-22 23 -24 -28 -29 -30 -34 -35 36 0
-22 23 -24 -28 -29 -30 -34 -35 -36 0
-22 -23 24 28 29 30 34 35 -36 0
-22 -23 24 28 29 30 34 -35 36 0
-22 -23 24 28 29 30 -34 35 36 0
-22 -23 24 28 29 -30 34 35 36 0
-22 -23 24 28 -29 30 34 -35 -36 0
-22 -23 24 28 -29 30 -34 35 -36 0
-22 -23 24 28 -29 30 -34 -35 36 0
-22 -23 24 28 -29 30 -34 -35 -36 0
-22 -23 24 28 -29 -30 34 35 -36 0
-22 -23 24 28 -29 -30 34 -35 36 0
-22 -23 24 28 -29 -30 34 -35 -36 0
-22 -23 24 28 -29 -30 -34 35 36 0
-22 -23 24 28 -29 -30 -34 35 -36 0
-22 -23 24 28 -29 -30 -34 -35 36 0
-22 -23 24 28 -29 -30 -34 -35 -36 0
-22 -23 24 -28 29 30 34 35 36 0
-22 -23 24 -28 -29 30 34 35 -36 0
-22 -23 24 -28 -29 30 34 -35 36 0
-22 -23 24 -28 -29 30 34 -35 -36 0
-22 -23 24 -28 -29 30 -34 35 36 0
-22 -23 24 -28 -29 30 -34 35 -36 0
-22 -23 24 -28 -29 30 -34 -35 36 0
-22 -23 24 -28 -29 30 -34 -35 -36 0
-22 -23 24 -28 -29 -30 34 35 36 0
-22 -23 24 -28 -29 -30 34 35 -36 0
-22 -23 24 -28 -29 -30 34 -35 36 0
-22 -23 24 -28 -29 -30 34 -35 -36 0
-22 -23 24 -28 -29 -30 -34 35 36 0
-22 -23 24 -28 -29 -30 -34 35 -36 0
-22 -23 24 -28 -29 -30 -34 -35 36 0
-22 -23 24 -28 -29 -30 -34 -35 -36 0
-22 -23 -24 28 29 30 34 35 36 0
-22 -23 -24 28 -29 30 34 35 -36 0
-22 -23 -24 28 -29 30 34 -35 36 0
-22 -23 -24 28 -29 30 34 -35 -36 0
-22 -23 -24 28 -29 30 -34 35 36 0
-22 -23 -24 28 -29 30 -34 35 -36 0
-22 -23 -24 28 -29 30 -34 -35 36 0
-22 -23 -24 28 -29 30 -34 -35 -36 0
-22 -23 -24 28 -29 -30 34 35 36 0
-22 -23 -24 28 -29 -30 34 35 -36 0
-22 -23 -24 28 -29 -30 34 -35 36 0
-22 -23 -24 28 -29 -30 34 -35 -36 0
-22 -23 -24 28 -29 -30 -34 35 36 0
-22 -23 -24 28 -29 -30 -34 35 -36 0
-22 -23 -24 28 -29 -30 -34 -35 36 0
-22 -23 -24 28 -29 -30 -34 -35 -36 0
-22 -23 -24 -28 -29 30 34 35 36 0
-22 -23 -24 -28 -29 30 34 35 -36 0
-22 -23 -24 -28 -29 30 34 -35 36 0
-22 -23 -24 -28 -29 30 34 -35 -36 0
-22 -23 -24 -28 -29 30 -34 35 36 0
-22 -23 -24 -28 -29 30 -34 35 -36 0
-22 -23 -24 -28 -29 30 -34 -35 36 0
-22 -23 -24 -28 -29 30 -34 -35 -36 0
-22 -23 -24 -28 -29 -30 34 35 36 0
-22 -23 -24 -28 -29 -30 34 35 -36 0
-22 -23 -24 -28 -29 -30 34 -35 36 0
-22 -23 -24 -28 -29 -30 34 -35 -36 0
-22 -23 -24 -28 -29 -30 -34 35 36 0
-22 -23 -24 -28 -29 -30 -34 35 -36 0
-22 -23 -24 -28 -29 -30 -34 -35 36 0
-22 -23 -24 -28 -29 -30 -34 -35 -36 0
23 24 29 -30 35 36 0
23 24 29 -30 35 -36 0
23 24 29 -30 -35 36 0
23 24 -29 30 -35 -36 0
23 24 -29 -30 35 36 0
23 -24 29 30 -35 -36 0
23 -24 29 -30 35 36 0
23 -24 -29 30 35 -36 0
23 -24 -29 30 -35 36 0
23 -24 -29 -30 -35 -36 0
-23 24 29 30 -35 -36 0
-23 24 29 -30 35 36 0
-23 24 -29 30 35 -36 0
-23 24 -29 30 -35 36 0
-23 24 -29 -30 -35 -36 0
-23 -24 29 30 35 -36 0
-23 -24 29 30 -35 36 0
-23 -24 29 -30 -35 -36 0
-23 -24 -29 30 35 36 0
-23 -24 -29 -30 35 -36 0
-23 -24 -29 -30 -35 36 0
-23 -24 -29 -30 -35 -36 0
-24 -30 -36 0
25 26 -31 32 0
25 26 -31 -32 0
25 -26 -31 32 0
-25 26 -31 32 0
-25 -26 31 -32 0
25 26 27 31 -32 33 0
25 26 27 31 -32 -33 0
25 26 27 -31 -32 33 0
25 26 -27 31 -32 33 0
25 26 -27 -31 32 -33 0
25 -26 27 31 -32 33 0
25 -26 27 -31 32 -33 0
25 -26 -27 31 32 -33 0
25 -26 -27 -31 32 33 0
25 -26 -27 -31 -32 -33 0
-25 26 27 31 -32 33 0
-25 26 27 -31 32 -33 0
-25 26 -27 31 32 -33 0
-25 26 -27 -31 32 33 0
-25 26 -27 -31 -32 -33 0
-25 -26 27 31 32 -33 0
-25 -26 27 -31 32 33 0
-25 -26 27 -31 -32 -33 0
-25 -26 -27 31 32 33 0
-25 -26 -27 31 -32 -33 0
-25 -26 -27 -31 -32 33 0
-25 -26 -27 -31 -32 -33 0
26 27 28 32 -33 34 0
26 27 28 32 -33 -34 0
26 27 28 -32 -33 34 0
26 27 -28 32 -33 34 0
26 27 -28 -32 33 -34 0
26 -27 28 32 -33 34 0
26 -27 28 -32 33 -34 0
26 -27 -28 32 33 -34 0
26 -27 -28 -32 33 34 0
26 -27 -28 -32 -33 -34 0
-26 27 28 32 -33 34 0
-26 27 28 -32 33 -34 0
-26 27 -28 32 33 -34 0
-26 27 -28 -32 33 34 0
-26 27 -28 -32 -33 -34 0
-26 -27 28 32 33 -34 0
-26 -27 28 -32 33 34 0
-26 -27 28 -32 -33 -34 0
-26 -27 -28 32 33 34 0
-26 -27 -28 32 -33 -34 0
-26 -27 -28 -32 -33 34 0
-26 -27 -28 -32 -33 -34 0
27 28 29 33 -34 35 0
27 28 29 33 -34 -35 0
27 28 29 -33 -34 35 0
27 28 -29 33 -34 35 0
27 28 -29 -33 34 -35 0
27 -28 29 33 -34 35 0
27 -28 29 -33 34 -35 0
27 -28 -29 33 34 -35 0
27 -28 -29 -33 34 35 0
27 -28 -29 -33 -34 -35 0
-27 28 29 33 -34 35 0
-27 28 29 -33 34 -35 0
-27 28 -29 33 34 -35 0
-27 28 -29 -33 34 35 0
-27 28 -29 -33 -34 -35 0
-27 -28 29 33 34 -35 0
-27 -28 29 -33 34 35 0
-27 -28 29 -33 -34 -35 0
-27 -28 -29 33 34 35 0
-27 -28 -29 33 -34 -35 0
-27 -28 -29 -33 -34 35 0
-27 -28 -29 -33 -34 -35 0
28 29 30 34 -35 36 0
28 29 30 34 -35 -36 0
28 29 30 -34 -35 36 0
28 29 -30 34 -35 36 0
28 29 -30 -34 35 -36 0
28 -29 30 34 -35 36 0
28 -29 30 -34 35 -36 0
28 -29 -30 34 35 -36 0
28 -29 -30 -34 35 36 0
28 -29 -30 -34 -35 -36 0
-28 29 30 34 -35 36 0
-28 29 30 -34 35 -36 0
-28 29 -30 34 35 -36 0
-28 29 -30 -34 35 36 0
-28 29 -30 -34 -35 -36 0
-28 -29 30 34 35 -36 0
-28 -29 30 -34 35 36 0
-28 -29 30 -34 -35 -36 0
-28 -29 -30 34 35 36 0
-28 -29 -30 34 -35 -36 0
-28 -29 -30 -34 -35 36 0
-28 -29 -30 -34 -35 -36 0
29 30 35 -36 0
29 30 -35 -36 0
29 -30 35 -36 0
-29 30 35 -36 0
-29 -30 -35 36 0
-31 -32 -33 0
-32 -33 -34 0
-33 -34 -35 0
-34 -35 -36 0
1 2 3 4 5 6 0
31 32 33 34 35 36 0
1 7 13 19 25 31 0
6 12 18 24 30 36 0
1 2 3 4 5 6 7 8 9 10 11 12 13 14 15 16 17 18 19 20 21 22 23 24 25 26 27 28 29 30 31 32 33 34 35 36 0
1 2 3 4 -5 -6 -7 8 9 10 -11 12 -13 -14 -15 16 -17 18 19 20 21 -22 23 24 -25 -26 -27 28 29 30 -31 32 33 34 35 36 0
1 -2 -3 4 -5 -6 7 8 -9 10 -11 12 13 14 -15 16 -17 18 19 20 21 -22 23 24 -25 -26 -27 28 29 30 -31 32 33 34 35 36 0
-1 -2 3 4 5 6 -7 -8 9 10 11 12 13 14 15 16 -17 18 19 20 21 -22 23 -24 -25 -26 27 28 -29 30 -31 32 -33 -34 35 36 0
1 -2 3 4 5 6 7 -8 -9 -10 11 12 13 14 15 16 -17 18 19 20 21 -22 23 -24 -25 -26 27 28 -29 30 -31 32 -33 -34 35 36 0
1 2 -3 -4 5 6 7 -8 9 10 -11 12 -13 14 -15 16 17 -18 -19 20 -21 -22 23 -24 25 -26 27 28 -29 30 31 32 -33 -34 35 36 0
1 2 -3 -4 5 -6 7 -8 9 10 -11 -12 -13 14 -15 16 17 18 -19 20 -21 22 -23 -24 25 -26 27 -28 29 -30 31 32 -33 34 35 36 0
1 2 -3 -4 5 -6 7 -8 9 10 -11 -12 13 14 -15 16 17 18 19 -20 -21 22 -23 -24 -25 26 27 -28 29 -30 -31 -32 33 34 -35 36 0
1 2 -3 -4 5 -6 7 -8 9 10 -11 -12 13 14 -15 16 17 18 19 -20 -21 22 -23 -24 -25 26 27 -28 29 -30 -31 -32 33 34 35 36 0
1 2 -3 -4 5 -6 7 -8 9 10 -11 -12 13 14 -15 16 17 18 19 -20 -21 22 -23 -24 -25 26 27 -28 29 -30 31 -32 -33 34 35 36 0
-1 -2 3 4 5 6 -7 8 9 10 -11 -12 13 14 -15 16 17 -18 19 -20 -21 22 -23 24 -25 26 27 -28 29 30 -31 -32 33 34 35 36 0
-1 -2 3 4 5 6 -7 8 -9 10 11 12 13 14 -15 16 17 18 19 -20 -21 22 -23 -24 -25 26 27 -28 29 -30 -31 -32 33 34 35 36 0
-1 -2 3 4 5 6 -7 8 -9 10 11 12 13 14 -15 16 17 18 19 -20 -21 22 -23 -24 -25 26 27 -28 29 -30 -31 -32 33 34 -35 36 0
-1 -2 3 4 5 6 -7 8 -9 10 11 12 13 14 -15 16 17 18 19 -20 -21 22 -23 24 -25 26 27 -28 29 -30 -31 -32 33 34 -35 36 0
-1 -2 3 4 5 6 -7 8 -9 10 11 12 13 14 -15 16 17 18 19 -20 -21 22 -23 24 -25 26 27 -28 29 -30 -31 -32 33 34 -35 -36 0
1 2 3 -4 -5 6 7 8 -9 10 -11 12 13 14 -15 16 17 18 19 -20 -21 22 -23 24 -25 26 27 -28 29 -30 -31 -32 33 34 -35 -36 0
1 2 3 -4 -5 6 7 8 -9 10 -11 12 13 14 -15 16 17 18 19 -20 -21 22 -23 24 -25 26 27 -28 29 -30 -31 -32 33 34 -35 36 0
1 2 3 -4 5 -6 7 8 -9 10 -11 -12 13 14 -15 16 17 18 19 -20 -21 22 -23 -24 -25 26 27 -28 29 -30 -31 -32 33 34 -35 36 0
1 -2 -3 4 -5 -6 7 8 -9 10 -11 -12 13 14 -15 16 17 18 19 -20 -21 22 -23 -24 -25 26 27 -28 29 -30 -31 -32 33 34 -35 36 0
1 -2 -3 4 -5 -6 7 8 -9 10 -11 -12 13 14 -15 16 17 18 19 -20 -21 22 -23 -24 -25 26 27 -28 29 -30 -31 -32 33 34 35 36 0
1 2 3 -4 5 -6 7 8 -9 10 -11 -12 13 14 -15 16 17 18 19 -20 -21 22 -23 -24 -25 26 27 -28 29 -30 -31 -32 33 34 35 36 0
1 2 3 -4 5 -6 7 8 -9 10 -11 -12 13 14 -15 16 17 18 19 -20 -21 22 -23 -24 -25 26 27 -28 29 -30 31 -32 -33 34 35 36 0
1 -2 -3 4 -5 -6 7 8 -9 10 -11 -12 13 14 -15 16 17 18 19 -20 -21 22 -23 -24 -25 26 27 -28 29 -30 31 -32 -33 34 35 36 0
-1 -2 3 4 5 6 -7 8 -9 10 11 12 13 14 -15 16 17 18 19 20 -21 22 -23 -24 25 26 27 -28 29 -30 31 32 33 34 -35 36 0
-1 -2 3 4 5 6 -7 8 -9 10 11 12 13 14 -15 16 17 18 19 20 -21 22 -23 24 25 26 27 -28 29 -30 31 32 33 34 -35 36 0
-1 -2 3 4 5 6 -7 8 -9 10 11 12 13 14 -15 16 17 18 19 20 -21 22 -23 24 25 26 27 -28 29 -30 31 32 33 34 -35 -36 0
-1 -2 3 4 5 6 -7 8 -9 10 11 12 13 14 -15 16 17 18 19 -20 -21 22 -23 -24 -25 26 27 -28 29 -30 31 -32 -33 34 35 36 0
-1 -2 3 4 5 6 -7 8 9 10 -11 -12 13 14 -15 16 17 -18 19 -20 -21 22 -23 24 -25 26 27 -28 29 30 31 -32 -33 34 35 36 0
-1 -2 3 4 5 6 -7 8 -9 10 11 12 13 14 -15 16 17 18 19 -20 21 -22 -23 24 -25 26 27 -28 29 -30 -31 -32 33 34 -35 -36 0
-1 -2 3 4 5 6 -7 8 -9 10 11 12 13 14 -15 16 17 18 19 -20 21 -22 -23 24 -25 26 27 -28 29 -30 -31 -32 33 34 -35 36 0
1 2 3 4 -5 -6 7 8 9 -10 11 -12 13 14 -15 16 17 18 19 -20 21 -22 -23 24 -25 26 27 -28 29 -30 -31 -32 33 34 -35 36 0
1 2 3 4 -5 -6 7 8 9 -10 11 -12 13 14 -15 16 17 18 19 -20 21 -22 -23 24 -25 26 27 -28 29 -30 -31 -32 33 34 -35 -36 0
-1 -2 3 4 -5 -6 -7 8 9 -10 11 -12 13 -14 -15 16 17 18 19 20 21 -22 -23 24 25 26 27 -28 29 -30 31 32 33 34 -35 -36 0
-1 -2 3 4 -5 -6 -7 8 9 -10 11 -12 13 -14 -15 16 17 18 19 20 21 -22 -23 24 25 26 27 -28 29 -30 31 32 33 34 -35 36 0
-1 -2 3 4 -5 -6 -7 8 9 -10 11 -12 13 -14 -15 16 17 18 19 20 21 -22 -23 24 -25 26 -27 28 29 -30 -31 -32 33 34 -35 -36 0
1 2 -3 -4 5 6 7 8 9 -10 11 12 -13 -14 -15 16 17 18 -19 20 21 -22 -23 -24 25 26 -27 28 29 -30 31 -32 -33 34 35 36 0
1 2 -3 -4 5 6 -7 8 9 -10 11 12 -13 -14 -15 16 17 18 19 20 21 -22 -23 -24 25 26 -27 28 29 -30 31 32 -33 -34 35 36 0
1 -2 -3 4 5 6 -7 8 9 -10 11 12 -13 -14 -15 16 17 18 19 20 21 -22 -23 -24 25 26 -27 28 29 -30 31 32 -33 -34 35 36 0
1 -2 -3 4 5 6 -7 8 9 -10 11 12 -13 -14 -15 16 17 18 19 20 21 -22 -23 -24 25 26 -27 28 29 -30 31 32 33 -34 -35 36 0
1 2 -3 -4 5 6 -7 8 9 -10 11 12 -13 -14 -15 16 17 18 19 20 21 -22 -23 -24 25 26 -27 28 29 -30 31 32 33 -34 -35 36 0
1 2 -3 -4 5 6 7 8 9 -10 11 12 -13 -14 -15 16 17 18 -19 20 21 -22 -23 -24 25 26 -27 28 29 -30 31 32 33 -34 -35 36 0
-1 -2 3 4 5 6 -7 8 9 -10 -11 12 13 -14 -15 16 17 -18 19 20 21 22 -23 -24 -25 26 -27 -28 29 30 -31 -32 33 -34 35 36 0
-1 -2 3 4 5 6 -7 8 9 -10 -11 12 13 -14 -15 16 17 -18 19 20 21 22 -23 24 25 -26 -27 -28 29 30 31 -32 33 34 35 36 0
-1 -2 3 4 5 -6 -7 8 9 -10 -11 -12 13 -14 -15 16 17 18 19 20 21 22 -23 -24 25 -26 -27 -28 29 -30 31 -32 33 34 35 36 0
1 2 -3 -4 5 -6 7 -8 9 10 -11 -12 13 -14 -15 16 17 18 19 20 -21 22 -23 -24 -25 26 -27 28 -29 -30 -31 -32 33 34 35 36 0
1 2 -3 -4 5 6 7 -8 9 10 -11 12 13 -14 -15 16 -17 18 19 20 -21 22 -23 -24 -25 26 27 28 29 30 -31 -32 33 34 35 36 0
1 2 -3 -4 5 6 7 -8 9 10 -11 12 13 -14 -15 16 -17 18 19 20 21 22 -23 -24 -25 26 -27 -28 29 30 -31 -32 33 -34 35 36 0
1 2 3 4 -5 -6 7 -8 -9 10 11 -12 13 -14 -15 16 -17 18 19 20 21 22 -23 -24 -25 26 -27 -28 29 30 -31 -32 33 -34 35 36 0
1 2 3 4 -5 -6 7 -8 -9 10 11 -12 -13 14 -15 16 -17 18 -19 20 21 22 -23 -24 25 -26 -27 -28 29 30 31 32 33 -34 35 36 0
-1 -2 3 4 5 6 -7 8 -9 10 -11 -12 13 14 -15 16 -17 18 19 -20 21 22 -23 24 25 -26 27 -28 29 30 31 32 -33 34 35 36 0
-1 -2 3 4 5 6 -7 8 -9 10 -11 -12 13 14 -15 16 -17 18 19 -20 21 22 -23 24 25 -26 27 -28 29 30 -31 -32 33 -34 -35 36 0
-1 -2 3 4 5 6 -7 8 -9 10 -11 -12 13 14 -15 16 -17 18 19 -20 -21 22 -23 24 -25 26 27 -28 29 30 -31 -32 33 34 35 36 0
-1 -2 3 4 5 6 -7 8 -9 10 -11 -12 13 14 -15 16 -17 18 19 -20 -21 22 -23 24 -25 26 27 -28 29 30 31 -32 -33 34 35 36 0
1 -2 -3 4 5 6 7 -8 9 10 -11 -12 13 14 -15 16 -17 18 19 -20 -21 22 -23 24 -25 26 27 -28 29 30 31 -32 -33 34 35 36 0
1 -2 -3 4 5 6 7 -8 9 10 -11 -12 13 14 -15 16 -17 18 19 -20 -21 22 -23 24 -25 26 27 -28 29 30 -31 -32 33 34 35 36 0
-1 -2 3 4 5 6 -7 8 -9 10 -11 -12 13 14 -15 16 -17 18 19 -20 21 22 -23 24 -25 26 27 28 -29 -30 -31 -32 33 34 35 36 0
-1 -2 3 4 5 6 -7 8 -9 10 -11 -12 13 14 -15 16 -17 18 19 20 -21 22 -23 24 -25 26 -27 28 -29 -30 -31 -32 33 34 35 36 0
1 2 -3 4 5 6 7 -8 9 -10 11 12 -13 14 -15 16 -17 18 -19 20 21 22 -23 24 25 -26 27 28 -29 -30 -31 -32 33 34 35 36 0
1 2 -3 -4 5 6 7 -8 9 -10 11 12 -13 14 -15 16 17 18 -19 20 21 22 23 24 25 -26 27 28 -29 -30 -31 -32 33 34 -35 -36 0
1 2 -3 4 5 6 7 -8 9 -10 11 12 -13 14 -15 16 17 18 -19 20 21 22 23 24 25 -26 27 28 -29 -30 -31 -32 33 34 -35 -36 0
1 2 -3 4 5 6 7 -8 9 -10 11 12 -13 14 -15 16 17 18 -19 -20 21 22 23 24 25 26 27 28 -29 -30 31 32 33 34 -35 -36 0
1 2 -3 -4 5 6 7 -8 9 -10 11 12 -13 14 -15 16 17 18 -19 -20 21 22 23 24 25 26 27 28 -29 -30 31 32 33 34 -35 -36 0
1 2 -3 -4 5 6 7 -8 9 -10 11 12 -13 14 -15 16 17 18 19 -20 21 22 23 24 25 26 27 28 -29 -30 31 32 33 34 -35 -36 0
1 2 -3 4 5 6 7 -8 9 -10 11 12 -13 14 -15 16 17 18 19 -20 21 22 23 24 25 26 27 28 -29 -30 31 32 33 34 -35 -36 0
1 2 -3 -4 5 -6 7 -8 9 10 -11 -12 -13 14 -15 16 17 18 19 -20 21 22 23 24 25 26 27 28 -29 -30 31 32 33 34 -35 -36 0
1 2 -3 -4 5 -6 7 -8 9 10 -11 -12 -13 14 -15 16 17 18 -19 -20 21 22 23 24 25 26 27 28 -29 -30 31 32 33 34 -35 -36 0
1 2 -3 -4 5 -6 7 -8 9 10 -11 -12 -13 14 -15 16 17 18 19 -20 21 22 23 24 25 26 -27 -28 -29 30 31 32 33 34 -35 36 0
-1 -2 3 4 5 6 -7 8 9 -10 11 12 13 14 -15 -16 17 18 19 20 21 22 23 24 25 26 -27 -28 -29 -30 31 32 -33 34 35 -36 0
-1 -2 3 4 5 6 -7 8 9 -10 -11 12 13 14 -15 -16 17 -18 19 20 21 22 23 -24 25 26 -27 -28 -29 30 31 32 -33 34 35 36 0
1 2 3 4 -5 6 -7 -8 9 -10 11 -12 -13 14 -15 -16 17 -18 19 20 21 22 -23 24 25 -26 -27 -28 29 30 31 -32 33 34 35 36 0
1 2 -3 -4 5 6 7 -8 9 10 -11 12 -13 14 -15 -16 17 -18 -19 20 21 22 -23 24 25 -26 27 -28 29 30 -31 -32 33 -34 -35 36 0
1 2 3 4 -5 6 7 -8 9 -10 11 -12 -13 14 -15 -16 17 -18 -19 20 21 22 -23 24 25 -26 27 -28 29 30 -31 -32 33 -34 -35 36 0
-1 -2 3 4 -5 6 -7 8 9 -10 11 -12 13 14 -15 -16 17 -18 19 20 21 22 -23 24 25 -26 27 -28 29 30 31 -32 -33 34 35 36 0
1 2 3 -4 -5 6 7 8 -9 10 11 -12 13 14 -15 -16 17 -18 -19 -20 21 22 -23 24 -25 26 27 -28 29 30 31 -32 -33 34 35 36 0
-1 -2 3 4 5 6 -7 8 -9 10 -11 -12 13 14 -15 -16 17 -18 19 -20 21 22 23 24 25 -26 27 -28 -29 30 31 32 -33 34 -35 36 0
-1 -2 3 4 5 6 -7 8 -9 10 -11 -12 13 14 -15 -16 17 -18 19 -20 21 22 23 24 25 -26 27 -28 -29 30 -31 -32 33 -34 -35 36 0
-1 -2 3 4 5 6 -7 8 -9 10 -11 -12 13 14 -15 -16 17 -18 19 -20 21 22 23 24 -25 26 27 -28 -29 30 31 -32 -33 34 -35 36 0
1 2 3 4 -5 -6 7 8 9 10 -11 -12 -13 -14 15 16 17 18 19 -20 21 22 23 24 25 -26 27 -28 -29 30 31 32 -33 34 -35 36 0
1 2 -3 4 -5 -6 7 8 -9 -10 11 -12 -13 -14 15 16 17 18 19 -20 21 22 23 24 25 -26 27 -28 -29 30 31 32 -33 34 -35 36 0
1 2 -3 4 -5 -6 7 8 -9 -10 11 -12 -13 -14 15 16 17 18 19 -20 21 22 23 24 25 -26 27 -28 -29 30 -31 -32 33 -34 -35 36 0
1 2 -3 4 -5 -6 7 8 -9 -10 11 -12 -13 -14 15 16 17 18 19 -20 21 22 23 24 25 -26 27 -28 29 30 31 32 -33 -34 35 36 0
1 2 -3 4 5 -6 7 8 -9 -10 -11 -12 -13 -14 15 16 17 18 19 -20 21 22 -23 -24 25 -26 27 -28 29 -30 -31 -32 33 -34 -35 36 0
1 2 -3 4 5 6 7 8 -9 -10 -11 12 -13 -14 15 16 17 -18 19 -20 21 22 -23 24 25 -26 27 -28 29 30 -31 -32 33 -34 -35 36 0
1 2 -3 4 5 6 7 8 -9 -10 -11 12 -13 -14 15 16 17 -18 19 -20 21 22 -23 -24 25 -26 27 -28 29 30 31 32 -33 -34 35 36 0
1 2 3 4 -5 -6 7 8 9 10 -11 12 -13 -14 15 16 17 -18 19 -20 21 22 -23 -24 25 -26 27 -28 29 30 31 32 -33 -34 35 36 0
1 2 3 4 -5 -6 7 8 9 10 -11 -12 -13 -14 15 16 17 18 19 -20 21 22 -23 -24 25 -26 27 -28 29 -30 -31 -32 33 -34 -35 36 0
1 2 3 4 -5 -6 7 8 9 10 -11 -12 -13 -14 15 16 17 18 19 -20 21 22 -23 -24 25 -26 27 -28 29 -30 31 32 -33 34 35 36 0
1 2 3 4 -5 -6 -7 -8 9 10 -11 -12 -13 -14 15 16 17 18 19 20 21 22 -23 -24 25 26 27 -28 29 -30 31 32 33 34 -35 36 0
1 2 3 4 -5 -6 -7 -8 9 10 -11 -12 -13 -14 15 16 17 18 19 20 21 22 23 24 25 26 27 28 -29 -30 31 32 33 34 -35 -36 0
1 2 3 4 -5 -6 -7 -8 9 10 -11 -12 -13 -14 15 16 17 18 19 20 21 22 23 24 -25 -26 27 28 -29 -30 -31 -32 33 34 -35 -36 0
1 2 3 4 -5 -6 7 8 9 10 -11 -12 -13 -14 15 16 17 18 -19 20 21 22 23 24 25 -26 27 28 -29 -30 -31 -32 33 34 -35 -36 0
1 2 3 4 -5 -6 -7 -8 9 10 -11 -12 13 -14 15 16 17 18 -19 20 21 22 23 24 -25 -26 27 28 -29 -30 31 32 33 34 -35 -36 0
1 2 3 4 -5 -6 -7 -8 9 10 -11 -12 13 -14 15 16 17 18 -19 20 21 22 23 24 -25 26 -27 28 -29 -30 31 -32 -33 34 -35 -36 0
1 2 3 4 -5 -6 -7 -8 9 10 -11 -12 13 -14 15 16 17 18 -19 20 21 22 23 24 -25 26 -27 28 29 30 31 -32 -33 34 35 36 0
1 2 3 4 -5 6 7 8 9 -10 11 -12 -13 -14 15 16 -17 18 -19 20 21 22 23 24 25 26 -27 28 29 30 31 -32 -33 34 35 36 0
1 2 3 4 -5 6 7 8 9 -10 11 -12 -13 -14 15 16 -17 18 -19 20 21 22 23 24 25 -26 27 28 29 30 -31 -32 33 34 35 36 0
1 2 3 4 -5 -6 7 8 9 -10 11 -12 -13 -14 15 16 -17 18 -19 20 21 22 23 24 25 -26 27 28 29 30 -31 -32 33 34 35 36 0
1 2 3 4 -5 -6 7 8 9 -10 11 -12 -13 -14 15 16 -17 18 -19 20 21 22 23 24 25 26 -27 28 29 30 31 -32 -33 34 35 36 0
1 2 3 4 -5 6 7 8 9 -10 11 -12 -13 -14 15 16 -17 -18 -19 20 21 22 23 24 25 26 -27 28 29 30 31 -32 -33 34 35 36 0
1 2 3 4 -5 6 7 8 9 -10 11 -12 -13 -14 15 16 -17 -18 -19 20 21 22 23 24 25 -26 27 28 29 30 -31 -32 33 34 35 36 0
1 2 3 4 -5 6 7 8 9 -10 11 -12 -13 -14 15 16 -17 -18 -19 20 21 22 23 24 25 -26 27 28 -29 -30 -31 -32 33 34 -35 -36 0
-1 -2 3 -4 -5 6 7 -8 9 -10 11 -12 13 -14 15 16 17 -18 19 20 -21 -22 -23 24 -25 26 -27 28 29 30 -31 -32 33 34 35 36 0
1 2 -3 -4 5 6 7 -8 9 -10 11 12 13 -14 15 16 17 18 19 20 -21 -22 -23 -24 -25 26 -27 28 29 -30 -31 -32 33 34 35 36 0
1 2 -3 4 -5 6 7 -8 9 -10 -11 12 13 -14 15 16 17 18 19 20 -21 -22 -23 24 -25 26 -27 28 29 -30 -31 -32 33 34 -35 -36 0
1 2 -3 4 -5 6 7 -8 9 -10 -11 12 13 -14 15 16 17 18 19 20 -21 -22 23 -24 -25 26 -27 28 -29 -30 -31 -32 33 34 35 36 0
-1 -2 3 -4 -5 6 7 -8 9 -10 -11 12 13 -14 15 16 17 18 19 20 -21 -22 23 -24 -25 26 -27 28 -29 -30 -31 -32 33 34 35 36 0
-1 -2 3 -4 -5 6 7 -8 9 -10 -11 12 13 -14 15 16 17 18 19 20 -21 -22 -23 24 -25 26 -27 28 29 -30 -31 -32 33 34 -35 -36 0
-1 -2 3 -4 -5 6 7 -8 9 -10 -11 12 13 -14 15 16 17 18 19 20 -21 -22 -23 24 25 26 27 28 29 -30 31 32 33 34 -35 -36 0
1 -2 -3 4 -5 6 -7 8 9 -10 -11 12 13 -14 15 16 17 18 19 20 -21 -22 -23 24 25 26 27 28 29 -30 31 32 33 34 -35 -36 0
-1 -2 3 4 -5 -6 -7 8 9 10 -11 -12 13 -14 15 16 17 18 19 20 -21 22 23 24 25 26 27 -28 29 -30 31 32 33 34 -35 -36 0
-1 -2 3 4 -5 -6 -7 8 9 10 -11 -12 13 -14 15 16 17 18 19 20 -21 22 23 24 25 26 27 -28 29 30 31 32 -33 -34 35 36 0
1 2 3 4 -5 -6 7 8 9 10 -11 -12 13 -14 15 16 17 18 -19 20 -21 22 23 24 -25 26 27 -28 29 30 31 -32 -33 34 35 36 0
1 2 3 4 -5 -6 7 8 9 10 -11 -12 -13 -14 15 16 17 18 -19 20 -21 22 23 24 25 26 27 -28 29 -30 31 32 33 34 -35 -36 0
-1 -2 3 4 5 6 -7 8 9 10 11 12 13 -14 15 16 17 18 19 20 -21 22 23 24 25 26 27 -28 29 -30 31 32 33 34 -35 -36 0
1 2 3 4 -5 -6 7 8 9 10 -11 -12 -13 -14 15 16 17 18 -19 20 -21 22 23 24 25 -26 27 -28 29 30 31 32 -33 34 35 36 0
1 2 3 4 -5 -6 7 8 9 10 -11 -12 -13 -14 15 16 17 18 -19 20 -21 22 23 24 25 -26 27 -28 29 30 31 32 -33 -34 35 36 0
1 2 3 4 -5 -6 7 8 9 10 -11 -12 13 -14 15 16 17 18 -19 20 -21 22 23 24 25 -26 27 -28 29 30 31 32 -33 -34 35 36 0
1 2 3 4 -5 -6 7 8 9 10 -11 -12 13 -14 15 16 17 18 -19 20 -21 22 23 24 25 -26 27 -28 29 30 31 32 -33 34 35 36 0
1 2 3 4 -5 -6 7 8 9 10 -11 -12 13 -14 15 16 17 18 -19 20 -21 22 23 24 25 -26 27 28 -29 -30 31 32 -33 -34 35 -36 0
1 2 3 4 -5 -6 7 8 9 10 -11 -12 -13 -14 15 16 17 18 -19 20 -21 22 23 24 25 -26 27 28 -29 -30 31 32 -33 -34 35 -36 0
1 2 3 4 -5 -6 7 8 9 10 -11 -12 13 14 15 16 17 18 19 -20 -21 22 23 24 -25 26 27 -28 29 30 31 -32 -33 34 35 36 0
1 2 3 4 -5 -6 7 8 9 10 -11 -12 -13 14 15 16 17 18 -19 -20 -21 22 23 24 25 26 27 -28 29 30 31 32 -33 -34 35 36 0
1 2 3 4 -5 -6 7 8 9 10 -11 -12 13 14 15 16 17 18 19 -20 -21 22 23 24 -25 26 27 -28 29 -30 -31 -32 33 34 -35 -36 0
1 2 3 4 -5 -6 7 8 9 -10 11 -12 13 14 15 16 -17 18 19 -20 -21 -22 23 24 -25 26 27 28 29 30 -31 -32 33 34 35 36 0
1 2 3 4 -5 6 7 8 9 -10 11 -12 13 14 15 16 -17 18 19 -20 -21 -22 23 24 -25 26 27 28 29 30 -31 -32 33 34 35 36 0
1 2 3 -4 -5 6 7 8 9 -10 11 -12 13 14 15 16 -17 18 19 -20 -21 -22 23 24 -25 26 27 28 29 30 -31 -32 33 34 35 36 0
1 -2 3 -4 -5 6 7 -8 -9 10 11 -12 13 14 15 16 -17 18 19 -20 -21 -22 23 24 -25 26 27 28 29 30 -31 -32 33 34 35 36 0
1 -2 -3 4 -5 -6 7 -8 -9 10 -11 12 13 14 15 16 -17 18 19 -20 -21 -22 23 24 -25 26 27 28 29 30 -31 -32 33 34 35 36 0
1 -2 -3 4 -5 -6 7 -8 -9 10 -11 12 13 14 15 16 -17 18 19 -20 -21 -22 23 24 -25 26 27 -28 29 -30 -31 -32 33 34 -35 -36 0
1 -2 -3 4 -5 -6 -7 8 -9 10 -11 12 -13 14 15 16 -17 18 19 -20 -21 -22 23 24 25 26 27 -28 29 -30 31 32 33 34 -35 -36 0
1 2 -3 -4 5 6 7 8 -9 10 -11 12 13 14 15 16 -17 18 -19 -20 -21 -22 23 24 -25 26 27 -28 29 -30 31 32 33 34 -35 -36 0
1 2 -3 -4 5 6 7 8 -9 10 11 12 13 14 15 16 -17 18 -19 -20 -21 -22 23 -24 -25 26 27 -28 29 -30 31 32 33 34 -35 36 0
1 2 -3 -4 5 6 7 8 -9 10 11 -12 13 14 15 16 -17 -18 -19 -20 -21 -22 23 24 -25 26 27 -28 29 30 31 -32 -33 34 35 36 0
1 -2 3 -4 -5 6 7 -8 -9 10 11 -12 13 14 15 16 -17 -18 19 -20 -21 -22 23 24 -25 26 27 -28 29 30 31 -32 -33 34 35 36 0
1 -2 3 -4 -5 6 7 -8 -9 10 11 -12 13 14 15 16 -17 -18 19 -20 -21 -22 23 24 -25 26 27 -28 29 30 -31 -32 33 34 35 36 0
1 -2 3 -4 -5 6 7 -8 -9 10 11 -12 13 14 15 16 -17 18 -19 20 -21 -22 23 24 -25 -26 27 -28 29 -30 31 32 33 34 -35 -36 0
1 -2 -3 4 -5 -6 7 -8 -9 10 -11 12 13 14 15 16 -17 18 -19 20 -21 -22 23 24 -25 -26 27 -28 29 -30 31 32 33 34 -35 -36 0
1 -2 3 -4 5 6 7 -8 -9 10 -11 12 13 14 15 16 -17 18 -19 20 -21 -22 23 24 -25 -26 27 -28 29 -30 31 32 33 34 -35 -36 0
1 -2 3 4 5 6 7 -8 -9 -10 11 12 13 14 15 16 -17 18 -19 20 -21 -22 23 24 -25 -26 27 -28 29 -30 31 32 33 34 -35 -36 0
1 -2 3 4 5 6 7 -8 -9 -10 11 12 13 14 15 16 -17 18 -19 20 -21 -22 23 -24 -25 -26 27 -28 29 -30 31 32 33 34 -35 36 0
1 -2 3 4 5 6 7 -8 -9 -10 11 12 13 14 15 16 -17 18 19 -20 -21 -22 23 -24 -25 26 27 -28 29 -30 -31 -32 33 34 -35 36 0
1 -2 3 4 5 6 7 -8 -9 -10 11 12 13 14 15 16 -17 18 19 -20 -21 -22 23 24 -25 26 27 -28 29 -30 -31 -32 33 34 -35 -36 0
1 -2 3 4 5 6 7 -8 -9 -10 11 12 13 14 15 16 -17 18 19 -20 -21 22 23 -24 -25 26 27 -28 -29 30 -31 -32 33 34 35 36 0
1 -2 3 4 5 6 7 -8 -9 -10 11 -12 13 14 15 16 -17 -18 19 -20 -21 22 23 24 -25 26 27 -28 -29 -30 -31 -32 33 34 35 -36 0
1 -2 3 4 -5 6 7 -8 -9 -10 -11 12 13 14 15 16 17 18 19 -20 -21 22 23 24 -25 26 27 -28 29 -30 -31 -32 33 34 -35 -36 0
1 -2 -3 4 5 6 7 -8 -9 10 11 12 13 14 15 16 17 18 19 -20 -21 22 23 24 -25 26 27 -28 29 -30 -31 -32 33 34 -35 -36 0
1 -2 -3 4 -5 -6 7 -8 -9 10 -11 12 13 14 15 16 -17 18 19 20 21 22 -23 -24 -25 26 -27 -28 29 30 -31 -32 33 -34 35 36 0
1 -2 -3 4 -5 -6 7 -8 -9 10 -11 12 13 14 15 16 -17 18 19 20 21 22 -23 -24 -25 -26 27 28 29 30 -31 -32 33 34 35 36 0
1 -2 3 -4 5 6 7 -8 -9 10 -11 12 13 14 15 16 -17 18 19 20 21 22 -23 -24 -25 -26 27 28 29 30 -31 -32 33 34 35 36 0
1 -2 3 -4 -5 6 7 -8 -9 10 11 -12 13 14 15 16 -17 -18 19 20 21 22 23 24 -25 -26 27 28 29 30 -31 -32 33 34 35 36 0
1 -2 3 -4 -5 6 7 -8 -9 10 11 -12 13 14 15 16 -17 -18 19 20 21 22 23 24 -25 -26 27 28 -29 -30 -31 -32 33 34 -35 -36 0
1 -2 3 -4 -5 6 7 -8 -9 10 -11 12 13 14 15 16 17 18 19 20 21 22 23 24 -25 -26 27 28 -29 -30 -31 -32 33 34 -35 -36 0
1 2 -3 -4 5 -6 7 8 -9 10 -11 -12 13 14 15 16 17 18 19 20 21 22 23 24 -25 -26 27 28 -29 -30 -31 -32 33 34 -35 -36 0
1 2 -3 -4 5 -6 7 8 -9 10 -11 -12 13 14 15 16 17 18 19 20 21 22 23 24 -25 -26 27 28 29 30 -31 -32 33 34 35 36 0
1 2 -3 -4 5 -6 7 8 -9 10 -11 -12 13 14 15 16 17 18 19 20 21 22 23 24 -25 -26 27 -28 29 30 -31 32 -33 -34 35 36 0
1 2 -3 -4 5 -6 7 8 -9 10 -11 -12 13 14 15 16 17 18 19 20 21 22 23 24 -25 -26 27 -28 -29 30 -31 -32 33 -34 -35 36 0
1 -2 -3 4 -5 -6 7 -8 -9 10 -11 -12 13 14 15 16 17 18 19 20 21 22 23 24 -25 -26 27 -28 -29 30 -31 -32 33 -34 -35 36 0
1 -2 -3 4 -5 -6 7 -8 -9 10 -11 -12 13 14 15 16 17 18 19 20 21 22 23 24 -25 -26 27 -28 29 30 -31 32 -33 -34 35 36 0
1 -2 -3 4 5 6 7 -8 -9 10 11 12 13 14 15 16 17 18 19 20 21 22 -23 -24 -25 -26 27 -28 29 -30 -31 -32 33 -34 -35 36 0
1 -2 -3 4 5 6 7 -8 -9 10 11 12 13 14 15 16 17 18 19 20 21 22 -23 24 -25 -26 27 -28 29 -30 -31 -32 33 -34 -35 36 0
1 -2 -3 4 5 6 7 8 -9 10 11 12 -13 14 15 16 17 18 -19 -20 21 22 -23 24 25 26 27 -28 29 -30 31 32 33 34 -35 36 0
1 -2 -3 4 5 6 7 8 -9 10 11 12 -13 14 15 16 17 18 -19 -20 21 22 -23 24 25 26 27 -28 29 -30 31 32 33 34 -35 -36 0
1 -2 -3 4 5 6 7 8 -9 10 11 12 -13 14 15 16 17 18 -19 -20 21 22 -23 -24 25 26 27 -28 29 -30 31 32 33 34 -35 36 0
1 -2 3 4 5 6 -7 8 -9 10 11 12 13 -14 15 16 -17 -18 19 20 21 22 23 -24 25 26 27 -28 29 30 31 32 33 -34 -35 36 0
-1 -2 3 4 5 6 -7 8 -9 10 11 12 13 -14 15 16 -17 -18 19 20 21 22 23 -24 25 26 27 -28 29 30 31 32 33 -34 -35 36 0
1 -2 3 4 5 6 -7 8 -9 10 11 12 -13 -14 15 16 -17 -18 19 20 21 22 23 -24 25 26 27 -28 29 30 31 32 33 -34 -35 36 0
1 2 3 -4 5 6 -7 8 -9 10 -11 12 -13 -14 15 16 -17 18 19 20 21 22 -23 -24 -25 -26 -27 -28 29 30 -31 32 33 -34 35 36 0
1 -2 -3 4 -5 -6 -7 8 -9 10 -11 12 -13 -14 15 16 -17 18 19 20 21 22 -23 -24 -25 -26 -27 -28 29 30 -31 32 33 -34 35 36 0
1 -2 -3 4 -5 -6 7 8 -9 10 -11 12 13 -14 15 16 -17 18 -19 20 21 22 -23 -24 25 -26 -27 -28 29 30 31 32 33 -34 35 36 0
1 2 3 -4 5 6 7 8 -9 10 -11 12 13 -14 15 16 -17 18 -19 20 21 22 -23 -24 25 -26 -27 -28 29 30 31 32 33 -34 35 36 0
1 2 -3 -4 5 6 7 8 -9 10 -11 12 -13 -14 15 16 -17 18 -19 20 21 22 -23 -24 25 -26 -27 -28 29 30 31 32 33 -34 35 36 0
1 -2 3 -4 5 6 7 -8 -9 10 -11 12 13 14 15 16 -17 18 19 20 21 22 -23 -24 -25 26 -27 -28 29 30 -31 -32 33 -34 35 36 0
1 -2 -3 4 5 6 7 -8 -9 10 11 12 13 14 15 16 17 18 19 20 21 22 -23 -24 -25 -26 27 28 -29 -30 -31 -32 33 34 35 36 0
1 -2 -3 4 5 6 7 -8 -9 10 11 12 13 14 15 16 17 18 19 20 21 22 23 24 -25 -26 27 28 -29 -30 -31 -32 33 34 -35 -36 0
1 -2 -3 4 -5 -6 7 -8 -9 10 -11 -12 13 14 15 16 17 18 19 20 21 22 23 24 -25 -26 27 28 29 30 -31 -32 33 34 35 36 0
1 -2 -3 4 -5 -6 7 -8 -9 10 -11 -12 13 14 15 16 17 18 19 20 21 22 23 24 -25 -26 27 28 -29 -30 -31 -32 33 34 -35 -36 0
1 -2 -3 4 -5 -6 7 -8 -9 10 -11 -12 13 14 15 16 17 18 19 20 21 22 23 24 -25 26 -27 -28 29 30 -31 -32 33 -34 35 36 0
-1 2 3 -4 5 6 -7 -8 -9 -10 11 12 13 14 15 16 17 18 -19 -20 21 22 23 24 -25 26 -27 28 -29 -30 31 -32 -33 34 -35 -36 0
1 2 3 -4 5 6 7 -8 -9 -10 11 12 -13 14 15 16 17 18 19 -20 21 22 23 24 25 26 -27 28 -29 -30 31 -32 -33 34 -35 -36 0
1 -2 -3 4 5 6 -7 8 -9 10 11 12 -13 14 15 16 17 18 19 -20 21 22 23 24 25 26 -27 28 -29 -30 31 -32 -33 34 -35 -36 0
1 -2 -3 4 -5 -6 -7 8 -9 10 -11 -12 -13 14 15 16 17 18 19 -20 21 22 23 24 25 26 -27 28 -29 -30 31 -32 -33 34 -35 -36 0
1 2 -3 -4 5 -6 7 8 -9 10 -11 -12 13 14 15 16 17 18 19 -20 21 22 23 24 -25 26 -27 28 -29 -30 31 -32 -33 34 -35 -36 0
1 -2 -3 4 -5 -6 -7 8 -9 10 -11 -12 -13 14 15 16 17 18 19 -20 21 22 23 24 25 26 -27 28 -29 30 31 32 33 -34 -35 36 0
1 -2 -3 4 5 6 -7 8 -9 10 11 12 -13 14 15 16 17 18 19 -20 21 22 -23 -24 25 26 -27 28 29 -30 31 32 33 -34 -35 36 0
1 2 3 4 -5 -6 -7 -8 9 10 -11 -12 -13 14 15 16 17 18 19 -20 21 22 -23 -24 25 26 -27 28 29 -30 31 32 33 -34 -35 36 0
1 2 3 4 -5 -6 -7 -8 9 10 -11 -12 -13 14 15 16 17 18 19 -20 21 22 23 24 25 26 -27 28 -29 30 31 32 33 -34 -35 36 0
-1 -2 3 4 -5 -6 7 -8 9 10 -11 -12 -13 14 15 16 17 18 -19 -20 21 22 23 24 25 26 -27 28 -29 -30 31 32 -33 -34 35 -36 0
-1 -2 3 4 5 6 7 -8 9 10 11 12 -13 14 15 16 17 18 -19 -20 21 22 23 24 25 26 -27 28 -29 -30 31 32 -33 -34 35 -36 0
-1 -2 3 4 5 6 7 -8 9 10 11 12 -13 14 15 16 17 18 -19 -20 21 22 -23 -24 25 26 -27 28 29 -30 31 32 -33 -34 35 36 0
-1 -2 3 4 -5 -6 7 -8 9 10 -11 -12 -13 14 15 16 17 18 -19 -20 21 22 -23 -24 25 26 -27 28 29 -30 31 32 -33 -34 35 36 0
-1 -2 3 4 5 6 7 -8 9 10 11 12 -13 14 15 16 -17 -18 -19 -20 21 22 -23 24 25 26 -27 28 -29 30 31 32 -33 -34 35 36 0
1 -2 -3 4 5 6 7 8 -9 10 11 12 -13 14 15 16 17 18 -19 -20 21 22 -23 -24 25 26 -27 28 29 -30 31 32 -33 -34 35 36 0
1 -2 3 4 5 6 -7 8 -9 10 11 12 13 -14 15 16 17 18 19 20 21 22 -23 -24 25 26 -27 28 29 -30 31 32 -33 -34 35 36 0
-1 -2 3 4 5 6 -7 8 -9 10 11 12 13 -14 15 16 17 18 19 20 21 22 -23 -24 25 26 -27 28 29 -30 31 32 -33 -34 35 36 0
1 -2 -3 4 5 6 -7 8 -9 10 11 12 13 -14 15 16 17 18 19 20 21 22 -23 -24 25 26 -27 28 29 -30 31 32 -33 -34 35 36 0
1 -2 -3 4 5 6 -7 8 -9 10 11 12 -13 -14 15 16 17 18 19 20 21 22 -23 -24 -25 -26 27 28 -29 -30 -31 -32 33 34 35 36 0
1 -2 3 4 5 6 -7 8 -9 10 11 12 -13 -14 15 16 17 18 19 20 21 22 -23 -24 -25 -26 27 28 -29 -30 -31 -32 33 34 35 36 0
1 -2 -3 4 -5 -6 -7 8 -9 10 -11 12 -13 -14 15 16 -17 18 19 20 21 22 -23 -24 -25 -26 27 28 29 30 -31 -32 33 34 35 36 0
1 2 3 -4 5 6 -7 8 -9 10 -11 12 -13 -14 15 16 -17 18 19 20 21 22 -23 -24 -25 -26 27 28 29 30 -31 -32 33 34 35 36 0
1 2 -3 -4 5 6 7 8 -9 10 -11 12 -13 -14 15 16 -17 18 -19 20 21 22 -23 -24 25 -26 27 28 29 30 -31 -32 33 34 35 36 0
1 2 -3 -4 5 6 7 8 -9 10 -11 12 13 14 15 16 -17 18 19 20 21 22 -23 -24 -25 -26 27 28 29 30 -31 -32 33 34 35 36 0
1 2 -3 -4 5 6 7 8 -9 10 11 -12 13 14 15 16 -17 -18 19 20 21 22 23 24 -25 -26 27 28 -29 -30 -31 -32 33 34 -35 -36 0
1 2 -3 -4 5 6 7 8 -9 10 11 -12 13 14 15 16 -17 -18 19 20 21 22 23 24 -25 -26 27 28 29 30 -31 -32 33 34 35 36 0
1 -2 -3 4 5 6 7 8 -9 10 11 12 -13 14 15 16 17 18 -19 -20 21 22 23 24 25 26 27 28 -29 -30 31 32 33 34 -35 -36 0
1 -2 -3 4 -5 -6 7 8 -9 10 -11 -12 -13 14 15 16 17 18 -19 -20 21 22 23 24 25 26 27 28 -29 -30 31 32 33 34 -35 -36 0
1 -2 -3 4 -5 -6 -7 8 -9 10 -11 -12 -13 14 15 16 17 18 19 -20 21 22 23 24 -25 -26 27 28 -29 -30 31 32 33 34 -35 -36 0
1 -2 -3 4 5 6 -7 8 -9 10 11 12 -13 14 15 16 17 18 19 -20 21 22 23 24 -25 -26 27 28 -29 -30 31 32 33 34 -35 -36 0
-1 -2 3 4 5 6 -7 8 9 10 -11 -12 13 -14 15 16 -17 -18 -19 -20 21 22 23 24 25 26 27 28 -29 -30 31 32 33 34 -35 -36 0
-1 -2 3 4 -5 -6 -7 8 9 10 -11 -12 13 -14 15 16 17 18 -19 -20 21 22 23 24 25 26 27 28 -29 -30 31 32 33 34 -35 -36 0
-1 -2 3 4 5 6 -7 8 9 10 11 12 13 -14 15 16 17 18 -19 -20 21 22 23 24 25 26 27 28 -29 -30 31 32 33 34 -35 -36 0
1 2 -3 4 -5 6 7 -8 9 -10 -11 12 13 -14 15 16 17 18 -19 -20 21 22 23 24 25 26 27 28 -29 -30 31 32 33 34 -35 -36 0
-1 -2 3 -4 -5 6 7 -8 9 -10 -11 12 13 -14 15 16 17 18 -19 -20 21 22 23 24 25 26 27 28 -29 -30 31 32 33 34 -35 -36 0
1 2 -3 -4 5 6 7 -8 9 -10 11 12 13 -14 15 16 17 18 -19 -20 21 22 23 24 25 26 27 28 -29 -30 31 32 33 34 -35 -36 0
-1 -2 3 -4 -5 6 7 -8 9 -10 11 -12 13 -14 15 16 -17 -18 -19 -20 21 22 23 24 25 26 27 28 -29 -30 31 32 33 34 -35 -36 0
1 2 -3 4 5 6 7 -8 9 -10 11 -12 13 -14 15 16 -17 -18 -19 -20 21 22 23 24 25 26 27 28 -29 -30 31 32 33 34 -35 -36 0
1 2 -3 -4 5 6 7 -8 9 -10 11 12 13 -14 15 16 -17 -18 -19 -20 21 22 23 -24 25 26 27 28 -29 30 31 32 33 34 -35 -36 0
-1 -2 3 4 5 6 -7 8 9 10 11 12 13 -14 15 16 -17 -18 -19 -20 21 22 23 -24 25 26 27 28 -29 30 31 32 33 34 -35 -36 0
1 2 3 -4 5 6 7 8 -9 10 -11 12 13 -14 15 -16 17 -18 19 -20 21 22 23 -24 -25 -26 27 28 -29 30 31 32 33 34 -35 -36 0
-1 -2 3 4 5 6 -7 -8 9 10 11 12 13 14 15 16 -17 -18 -19 -20 21 22 23 -24 -25 -26 27 28 -29 30 31 32 33 34 -35 -36 0
-1 -2 3 4 5 6 -7 -8 9 10 11 12 13 14 15 16 -17 -18 19 20 21 22 23 -24 25 26 -27 -28 -29 30 31 32 -33 34 35 36 0
-1 -2 3 4 5 6 -7 -8 9 10 -11 -12 13 14 15 16 -17 18 19 20 21 22 23 -24 25 26 -27 -28 -29 30 31 32 -33 34 35 36 0
-1 -2 3 4 5 6 -7 -8 9 10 -11 -12 13 14 15 16 -17 18 19 20 21 22 23 -24 25 26 27 -28 29 -30 31 32 33 -34 -35 36 0
-1 -2 3 4 5 6 -7 -8 9 10 -11 -12 13 14 15 16 -17 18 19 20 21 22 23 -24 -25 -26 27 -28 29 -30 -31 -32 33 -34 -35 36 0
-1 -2 3 4 5 6 -7 -8 9 10 -11 -12 13 14 15 16 -17 18 19 20 21 22 23 -24 -25 -26 27 28 -29 -30 -31 -32 33 34 35 36 0
-1 -2 3 4 5 6 -7 -8 9 10 11 12 13 14 15 16 -17 -18 19 20 21 22 23 -24 25 26 27 28 -29 30 31 32 33 34 -35 -36 0
-1 -2 3 4 5 6 -7 -8 9 10 11 12 13 14 15 16 -17 -18 19 20 21 22 23 -24 25 26 27 -28 29 30 31 32 33 -34 -35 36 0
-1 -2 3 4 5 6 -7 -8 9 10 11 12 13 14 15 16 -17 -18 19 20 21 22 23 -24 -25 -26 27 -28 29 30 -31 -32 33 -34 -35 36 0
-1 -2 3 4 5 6 -7 -8 9 10 11 12 13 14 15 16 -17 -18 19 20 21 22 23 -24 -25 -26 27 28 -29 30 -31 -32 33 34 -35 -36 0
-1 -2 3 4 5 6 -7 -8 9 10 -11 -12 13 14 15 16 -17 -18 19 20 21 22 23 24 -25 -26 27 28 -29 -30 -31 -32 33 34 -35 -36 0
-1 -2 3 4 5 6 -7 -8 9 10 -11 -12 13 14 15 16 -17 -18 19 20 21 22 23 24 -25 -26 27 28 29 30 -31 -32 33 34 35 36 0
-1 -2 3 4 5 6 -7 -8 9 10 -11 -12 13 14 15 16 -17 -18 19 20 21 22 23 24 25 26 27 28 -29 -30 31 32 33 34 -35 -36 0
-1 -2 3 -4 -5 6 -7 -8 9 -10 11 -12 13 14 15 16 -17 -18 19 20 21 22 23 24 25 26 27 28 -29 -30 31 32 33 34 -35 -36 0
-1 -2 3 -4 -5 6 -7 -8 9 -10 11 -12 13 14 15 16 -17 -18 19 20 21 22 23 24 -25 -26 27 28 -29 -30 -31 -32 33 34 -35 -36 0
1 -2 -3 4 5 6 7 -8 9 -10 11 -12 13 14 15 16 -17 -18 19 20 21 22 23 24 -25 -26 27 28 -29 -30 -31 -32 33 34 -35 -36 0
1 -2 -3 4 5 6 7 -8 9 -10 11 -12 13 14 15 16 -17 -18 19 20 21 22 23 24 -25 -26 27 28 29 30 -31 -32 33 34 35 36 0
-1 -2 3 -4 -5 6 -7 -8 9 -10 11 -12 13 14 15 16 -17 -18 19 20 21 22 23 24 -25 -26 27 28 29 30 -31 -32 33 34 35 36 0
-1 -2 3 -4 -5 6 -7 -8 9 -10 11 -12 13 14 15 16 -17 18 19 20 21 22 23 24 -25 -26 27 28 29 30 -31 -32 33 34 35 36 0
-1 -2 3 -4 -5 6 -7 -8 9 -10 11 12 13 14 15 16 -17 18 19 20 21 22 23 -24 -25 -26 27 28 -29 -30 -31 -32 33 34 35 36 0
1 -2 -3 4 5 6 7 -8 9 -10 11 12 13 14 15 16 -17 18 19 20 21 22 23 -24 -25 -26 27 28 -29 -30 -31 -32 33 34 35 36 0
-1 2 -3 -4 5 6 -7 -8 9 -10 11 12 13 14 15 16 -17 -18 19 20 21 22 23 -24 -25 -26 27 28 -29 30 -31 -32 33 34 -35 -36 0
-1 2 -3 -4 5 6 -7 -8 9 -10 11 12 13 14 15 16 -17 -18 19 20 21 22 23 -24 25 26 27 28 -29 30 31 32 33 34 -35 -36 0
-1 -2 3 4 5 6 -7 -8 9 10 -11 -12 13 14 15 16 -17 -18 -19 -20 21 22 23 24 -25 -26 27 28 -29 -30 31 32 33 34 -35 -36 0
-1 -2 3 -4 -5 6 -7 -8 9 -10 11 -12 13 14 15 16 -17 18 19 20 21 22 23 24 -25 -26 27 -28 29 30 -31 32 -33 -34 35 36 0
-1 2 -3 -4 5 6 -7 -8 9 -10 11 12 13 14 15 16 -17 -18 19 20 21 22 23 -24 -25 -26 27 -28 29 30 -31 -32 33 -34 -35 36 0
1 -2 -3 4 5 6 7 -8 9 -10 11 12 13 14 15 16 -17 18 19 20 21 22 23 -24 -25 -26 27 -28 29 -30 -31 -32 33 -34 -35 36 0
-1 -2 3 -4 -5 6 -7 -8 9 -10 11 12 13 14 15 16 -17 18 19 20 21 22 23 -24 -25 -26 27 -28 29 -30 -31 -32 33 -34 -35 36 0
-1 -2 3 -4 -5 6 -7 -8 9 -10 11 12 13 14 15 16 -17 18 19 20 21 22 23 -24 25 26 27 -28 29 -30 31 32 33 -34 -35 36 0
-1 2 -3 -4 5 6 -7 -8 9 -10 11 12 13 14 15 16 -17 -18 19 20 21 22 23 -24 25 26 27 -28 29 30 31 32 33 -34 -35 36 0
1 2 3 -4 -5 6 7 8 9 -10 11 12 13 14 15 16 -17 18 19 20 21 22 23 -24 -25 -26 27 -28 29 -30 -31 -32 33 -34 -35 36 0
1 2 3 -4 -5 6 7 8 9 -10 11 -12 13 14 15 16 -17 18 -19 -20 21 22 23 24 -25 26 27 -28 29 30 31 32 -33 -34 35 36 0
1 2 3 4 -5 6 7 8 9 -10 11 -12 13 14 15 16 -17 18 -19 -20 21 22 23 24 -25 26 27 -28 29 30 31 32 -33 -34 35 36 0
1 2 3 4 -5 -6 7 8 9 -10 11 -12 13 14 15 16 -17 18 -19 -20 21 22 23 24 -25 26 27 -28 29 30 31 32 -33 -34 35 36 0
1 2 3 4 -5 6 7 8 9 -10 11 -12 13 14 15 16 -17 -18 -19 -20 21 22 23 24 -25 -26 27 28 -29 -30 31 32 33 34 -35 -36 0
1 2 3 -4 -5 6 7 8 9 -10 11 -12 13 14 15 16 -17 -18 -19 -20 21 22 23 24 -25 -26 27 28 -29 -30 31 32 33 34 -35 -36 0
1 2 3 -4 -5 6 7 8 9 -10 -11 12 13 14 15 16 17 18 -19 -20 21 22 23 24 -25 -26 27 28 -29 -30 31 32 33 34 -35 -36 0
1 2 3 4 -5 -6 7 8 9 10 -11 -12 13 14 15 16 17 18 -19 -20 21 22 23 24 -25 -26 27 28 -29 -30 31 32 33 34 -35 -36 0
-1 -2 3 4 -5 -6 -7 -8 9 10 -11 -12 13 14 15 16 17 18 -19 -20 21 22 23 24 -25 -26 27 28 -29 -30 31 32 33 34 -35 -36 0
-1 -2 3 4 5 6 -7 -8 9 10 11 12 13 14 15 16 17 18 -19 -20 21 22 23 24 -25 -26 27 28 -29 -30 31 32 33 34 -35 -36 0
1 2 3 4 -5 -6 7 8 9 10 -11 -12 13 14 15 16 17 18 -19 -20 21 22 23 24 -25 26 27 -28 29 30 31 32 -33 -34 35 36 0
1 2 3 4 -5 -6 7 8 9 10 -11 -12 13 14 15 16 17 18 -19 -20 21 22 23 24 -25 26 27 -28 -29 30 31 -32 -33 34 -35 36 0
-1 -2 3 4 -5 -6 -7 -8 9 10 -11 -12 13 14 15 16 17 18 -19 -20 21 22 23 24 -25 26 27 -28 -29 30 31 -32 -33 34 -35 36 0
-1 -2 3 4 -5 -6 -7 -8 9 10 -11 -12 13 14 15 16 17 18 -19 -20 21 22 23 24 -25 26 27 -28 29 30 31 32 -33 -34 35 36 0
-1 2 3 -4 5 6 -7 -8 -9 -10 11 12 13 14 15 16 17 18 -19 -20 21 22 23 24 -25 -26 27 28 -29 -30 31 32 33 34 -35 -36 0
1 2 3 -4 5 6 7 -8 -9 -10 11 12 -13 14 15 16 17 18 19 -20 21 22 23 24 -25 -26 27 28 -29 -30 31 32 33 34 -35 -36 0
1 2 3 -4 5 6 7 -8 -9 -10 11 12 -13 14 15 16 17 18 -19 -20 21 22 23 24 25 26 27 28 -29 -30 31 32 33 34 -35 -36 0
-1 -2 3 4 -5 -6 7 -8 9 10 -11 -12 -13 14 15 16 17 18 -19 -20 21 22 23 24 25 26 27 28 -29 -30 31 32 33 34 -35 -36 0
-1 -2 3 4 5 6 7 -8 9 10 11 12 -13 14 15 16 17 18 -19 -20 21 22 23 24 25 26 27 28 -29 -30 31 32 33 34 -35 -36 0
1 2 3 4 -5 -6 -7 -8 9 10 -11 -12 -13 14 15 16 17 18 19 -20 21 22 23 24 -25 -26 27 28 -29 -30 31 32 33 34 -35 -36 0
1 2 3 4 -5 -6 -7 -8 9 10 -11 -12 -13 14 15 16 17 18 19 -20 21 22 23 24 25 26 -27 28 -29 -30 31 -32 -33 34 -35 -36 0
1 2 3 4 -5 -6 -7 -8 9 10 -11 -12 -13 14 15 16 17 18 19 -20 21 22 23 24 25 26 -27 28 29 30 31 -32 -33 34 35 36 0
-1 -2 3 4 5 6 7 -8 9 10 11 12 -13 14 15 16 -17 -18 -19 -20 21 22 23 -24 25 26 27 28 -29 30 31 32 33 34 -35 -36 0
-1 -2 3 4 5 6 7 -8 9 10 -11 -12 -13 14 15 16 -17 -18 -19 -20 21 22 23 24 25 26 27 28 -29 -30 31 32 33 34 -35 -36 0
-1 -2 3 4 5 6 -7 8 9 10 -11 -12 13 -14 15 16 -17 18 -19 -20 21 22 23 -24 25 26 -27 -28 -29 30 31 32 -33 34 35 36 0
-1 -2 3 4 5 6 -7 8 9 10 -11 -12 13 -14 15 16 -17 -18 -19 -20 21 22 23 24 25 26 -27 -28 -29 -30 31 32 -33 34 35 -36 0
-1 -2 3 4 5 6 -7 8 9 10 11 12 13 -14 15 16 -17 -18 -19 -20 21 22 23 -24 25 26 -27 -28 -29 30 31 32 -33 34 35 36 0
1 2 -3 -4 5 6 7 -8 9 -10 11 12 13 -14 15 16 -17 -18 -19 -20 21 22 23 -24 25 26 -27 -28 -29 30 31 32 -33 34 35 36 0
1 2 -3 4 5 6 7 -8 9 -10 11 12 13 -14 15 16 -17 18 -19 -20 21 22 23 -24 25 26 -27 -28 -29 30 31 32 -33 34 35 36 0
-1 -2 3 -4 -5 6 7 -8 9 -10 11 12 13 -14 15 16 -17 18 -19 -20 21 22 23 -24 25 26 -27 -28 -29 30 31 32 -33 34 35 36 0
-1 -2 3 -4 -5 6 7 -8 9 -10 11 -12 13 -14 15 16 -17 -18 -19 -20 21 22 23 24 25 26 -27 -28 -29 -30 31 32 -33 34 35 -36 0
1 2 -3 4 5 6 7 -8 9 -10 11 -12 13 -14 15 16 -17 -18 -19 -20 21 22 23 24 25 26 -27 -28 -29 -30 31 32 -33 34 35 -36 0
1 2 -3 -4 5 6 7 -8 9 -10 11 12 13 -14 15 16 17 18 -19 -20 21 22 23 24 25 26 -27 -28 29 -30 31 32 -33 34 -35 -36 0
1 2 -3 4 -5 6 7 -8 9 -10 -11 12 13 -14 15 16 17 18 -19 -20 21 22 23 24 25 26 -27 -28 29 -30 31 32 -33 34 -35 -36 0
-1 -2 3 -4 -5 6 7 -8 9 -10 -11 12 13 -14 15 16 17 18 -19 -20 21 22 23 24 25 26 -27 -28 29 -30 31 32 -33 34 -35 -36 0
-1 -2 3 4 -5 -6 -7 8 9 10 -11 -12 13 -14 15 16 17 18 -19 -20 21 22 23 24 25 26 -27 -28 29 -30 31 32 -33 34 -35 -36 0
-1 -2 3 4 5 6 -7 8 9 10 11 12 13 -14 15 16 17 18 -19 -20 21 22 23 24 25 26 -27 -28 29 -30 31 32 -33 34 -35 -36 0
-1 -2 3 4 5 6 -7 8 9 10 11 12 13 -14 15 16 -17 -18 -19 -20 21 22 -23 24 25 26 27 28 29 -30 31 32 33 34 -35 -36 0
1 2 3 4 -5 -6 7 8 9 10 -11 -12 -13 -14 15 16 17 18 -19 20 21 22 -23 -24 25 -26 27 28 -29 -30 -31 -32 33 34 35 36 0
1 2 3 4 -5 -6 7 8 9 10 -11 12 -13 -14 15 16 17 -18 -19 20 21 22 -23 -24 25 -26 27 28 29 30 -31 -32 33 34 35 36 0
1 2 3 4 -5 -6 7 8 9 10 11 -12 -13 -14 15 16 -17 18 -19 20 21 22 -23 -24 25 -26 27 28 29 30 -31 -32 33 34 35 36 0
1 2 3 4 -5 -6 -7 -8 9 10 11 -12 -13 -14 15 16 -17 18 19 20 21 22 -23 -24 -25 -26 27 28 29 30 -31 -32 33 34 35 36 0
1 2 3 4 -5 -6 -7 -8 9 10 11 -12 -13 -14 15 16 -17 18 19 20 21 22 -23 -24 -25 -26 -27 -28 29 30 -31 32 33 -34 35 36 0
1 2 3 4 -5 -6 7 8 9 10 11 -12 -13 -14 15 16 -17 18 -19 20 21 22 -23 -24 25 -26 -27 -28 29 30 31 32 33 -34 35 36 0
1 2 3 4 -5 -6 -7 -8 9 10 11 -12 13 -14 15 16 -17 18 -19 20 21 22 -23 -24 25 -26 -27 -28 29 30 31 32 33 -34 35 36 0
1 2 -3 -4 5 6 -7 8 9 -10 11 12 -13 -14 15 16 17 18 19 20 21 22 -23 24 25 26 27 -28 29 -30 31 32 33 34 -35 -36 0
1 2 -3 -4 5 6 -7 8 9 -10 11 12 -13 -14 15 16 17 18 19 20 21 22 -23 24 25 26 27 -28 29 -30 31 32 33 34 -35 36 0
1 2 -3 -4 5 6 -7 8 9 -10 11 12 -13 -14 15 16 17 18 19 20 21 22 -23 24 25 26 27 -28 29 -30 31 32 33 -34 -35 36 0
1 2 -3 4 5 -6 7 8 -9 -10 -11 -12 -13 -14 15 16 17 18 19 -20 21 22 -23 -24 25 -26 27 -28 29 -30 31 32 -33 34 35 36 0
1 2 -3 4 5 6 7 8 -9 -10 -11 12 -13 -14 15 16 17 -18 19 -20 21 22 -23 24 25 -26 27 -28 29 30 31 32 -33 34 35 36 0
1 2 -3 4 5 6 7 8 -9 -10 -11 12 -13 -14 15 16 17 -18 19 -20 21 22 -23 24 -25 26 27 28 -29 -30 -31 -32 33 34 35 36 0
1 2 -3 4 5 6 7 8 -9 -10 -11 12 -13 -14 15 16 17 -18 19 -20 21 22 -23 -24 -25 26 27 28 29 30 -31 -32 33 34 35 36 0
1 2 -3 4 5 -6 7 8 -9 -10 -11 -12 -13 -14 15 16 17 18 19 -20 21 22 -23 -24 -25 26 27 28 -29 -30 -31 -32 33 34 35 36 0
1 2 3 4 -5 -6 7 8 9 10 -11 12 -13 -14 15 16 17 -18 19 -20 21 22 -23 -24 -25 26 27 28 29 30 -31 -32 33 34 35 36 0
1 2 3 4 -5 -6 7 8 9 10 -11 -12 -13 -14 15 16 17 18 19 -20 21 22 -23 -24 -25 26 27 28 -29 -30 -31 -32 33 34 35 36 0
1 2 3 4 -5 -6 7 8 9 10 11 -12 -13 -14 15 16 -17 18 19 -20 21 22 -23 -24 -25 26 27 28 29 30 -31 -32 33 34 35 36 0
1 2 3 4 -5 -6 -7 -8 9 10 -11 -12 -13 -14 15 16 17 18 19 20 21 22 -23 -24 -25 -26 27 28 -29 -30 -31 -32 33 34 35 36 0
1 2 3 4 -5 -6 -7 -8 9 10 -11 12 -13 -14 15 16 17 -18 19 20 21 22 -23 -24 -25 -26 27 28 29 30 -31 -32 33 34 35 36 0
-1 -2 3 4 5 6 -7 8 9 10 11 12 13 -14 15 16 17 18 19 20 -21 22 -23 -24 -25 26 -27 28 -29 -30 -31 -32 33 34 35 36 0
-1 -2 3 4 5 6 -7 8 9 10 -11 -12 13 -14 15 16 -17 18 19 20 -21 22 -23 24 -25 26 -27 28 -29 -30 -31 -32 33 34 35 36 0
1 2 3 4 -5 -6 7 8 9 10 11 -12 13 14 15 16 -17 18 19 20 21 22 -23 -24 -25 -26 27 28 29 30 -31 -32 33 34 35 36 0
1 2 3 4 -5 -6 7 8 9 10 11 -12 13 14 15 16 -17 18 19 20 21 22 -23 -24 -25 26 -27 -28 29 30 -31 -32 33 -34 35 36 0
1 2 3 -4 -5 6 7 8 9 -10 11 12 13 14 15 16 17 -18 19 20 21 22 -23 -24 -25 -26 27 -28 29 30 -31 32 -33 -34 35 36 0
1 2 3 -4 -5 6 7 8 9 -10 11 -12 13 14 15 16 17 -18 19 20 21 22 -23 24 -25 -26 27 -28 29 30 -31 -32 33 -34 -35 36 0
1 2 3 -4 -5 6 7 8 9 -10 11 -12 13 14 15 16 17 -18 19 20 21 22 -23 24 -25 -26 27 28 -29 -30 -31 -32 33 34 35 36 0
1 2 3 -4 -5 6 7 8 9 -10 11 12 13 14 15 16 17 -18 19 20 21 22 -23 -24 -25 -26 27 28 29 30 -31 -32 33 34 35 36 0
1 2 3 4 -5 -6 7 8 9 10 -11 12 13 14 15 16 17 -18 19 20 21 22 -23 -24 -25 -26 27 28 29 30 -31 -32 33 34 35 36 0
1 2 3 4 -5 -6 7 8 9 10 -11 -12 13 14 15 16 17 18 19 20 21 22 -23 -24 -25 -26 27 28 -29 -30 -31 -32 33 34 35 36 0
1 2 3 4 -5 -6 7 8 9 10 -11 12 13 14 15 16 17 -18 19 20 21 22 -23 -24 -25 -26 27 -28 29 30 -31 32 -33 -34 35 36 0
1 2 3 4 -5 -6 7 8 9 10 -11 -12 13 14 15 16 17 18 19 20 21 22 -23 -24 -25 -26 27 -28 29 -30 -31 -32 33 -34 -35 36 0
-1 -2 3 4 -5 -6 -7 -8 9 10 -11 -12 13 14 15 16 17 18 19 20 21 22 -23 -24 -25 -26 27 -28 29 -30 -31 -32 33 -34 -35 36 0
-1 -2 3 4 -5 -6 -7 -8 9 10 -11 -12 13 14 15 16 17 18 19 20 21 22 -23 -24 25 -26 27 -28 29 -30 31 -32 -33 34 35 36 0
-1 -2 3 4 5 6 -7 -8 9 10 11 12 13 14 15 16 17 18 19 20 21 22 -23 -24 25 -26 27 -28 29 -30 31 -32 -33 34 35 36 0
-1 -2 3 4 5 6 -7 -8 9 10 11 12 13 14 15 16 17 18 19 20 21 22 -23 -24 -25 -26 27 -28 29 -30 -31 -32 33 -34 -35 36 0
-1 -2 3 4 5 6 -7 -8 9 10 11 12 13 14 15 16 17 18 19 20 21 22 -23 -24 25 26 27 -28 29 -30 31 32 33 -34 -35 36 0
-1 -2 3 4 5 6 -7 -8 9 10 11 12 13 14 15 16 17 18 19 20 21 22 -23 -24 25 26 27 -28 29 -30 31 32 33 34 -35 36 0
-1 -2 3 4 -5 -6 -7 -8 9 10 -11 -12 13 14 15 16 17 18 19 20 21 22 -23 -24 25 26 27 -28 29 -30 31 32 33 34 -35 36 0
-1 -2 3 4 -5 -6 -7 -8 9 10 -11 -12 13 14 15 16 17 18 19 20 21 22 -23 -24 25 26 27 -28 29 -30 31 32 33 -34 -35 36 0
-1 -2 3 4 -5 -6 -7 -8 9 10 -11 12 13 14 15 16 17 -18 19 20 21 22 -23 -24 -25 -26 27 -28 29 30 -31 32 -33 -34 35 36 0
-1 -2 3 4 5 6 -7 -8 9 10 -11 -12 13 14 15 16 17 -18 19 20 21 22 -23 24 -25 -26 27 -28 29 30 -31 -32 33 -34 -35 36 0
-1 -2 3 4 5 6 -7 -8 9 10 11 12 13 14 15 16 17 18 19 20 21 22 -23 24 -25 -26 27 -28 29 -30 -31 -32 33 -34 -35 36 0
-1 -2 3 4 5 6 -7 -8 9 10 -11 -12 13 14 15 16 17 -18 19 20 21 22 -23 24 25 -26 27 -28 29 30 31 -32 -33 34 35 36 0
-1 -2 3 4 5 6 -7 -8 9 10 11 12 13 14 15 16 17 18 19 20 21 22 -23 24 25 26 27 -28 29 -30 31 32 33 34 -35 36 0
-1 -2 3 4 5 6 -7 -8 9 10 11 12 13 14 15 16 17 18 19 20 21 22 -23 24 25 26 27 -28 29 -30 31 32 33 34 -35 -36 0
-1 -2 3 4 5 6 -7 -8 9 10 11 12 13 14 15 16 17 18 19 20 21 22 -23 24 25 26 27 -28 29 -30 31 32 33 -34 -35 36 0
-1 -2 3 4 5 6 -7 -8 9 10 -11 -12 13 14 15 16 17 -18 19 20 21 22 -23 24 25 26 27 -28 29 30 31 32 33 -34 -35 36 0
-1 -2 3 4 5 6 -7 -8 9 10 11 12 13 14 15 16 17 18 19 20 21 22 -23 -24 -25 -26 27 28 -29 -30 -31 -32 33 34 35 36 0
-1 -2 3 4 -5 -6 -7 -8 9 10 -11 -12 13 14 15 16 17 18 19 20 21 22 -23 -24 -25 -26 27 28 -29 -30 -31 -32 33 34 35 36 0
-1 -2 3 4 -5 -6 -7 -8 9 10 -11 12 13 14 15 16 17 -18 19 20 21 22 -23 -24 -25 -26 27 28 29 30 -31 -32 33 34 35 36 0
-1 -2 3 4 5 6 -7 -8 9 10 -11 -12 13 14 15 16 17 -18 19 20 21 22 -23 24 -25 -26 27 28 -29 -30 -31 -32 33 34 35 36 0
-1 -2 3 4 -5 -6 -7 -8 9 10 -11 -12 13 14 15 16 17 18 19 20 21 22 -23 -24 25 26 -27 28 29 -30 31 32 -33 -34 35 36 0
-1 -2 3 4 -5 -6 -7 -8 9 10 -11 -12 13 14 15 16 17 18 19 20 21 22 -23 -24 25 -26 -27 28 29 -30 31 -32 33 -34 -35 36 0
-1 -2 3 4 5 6 -7 -8 9 10 11 12 13 14 15 16 17 18 19 20 21 22 -23 -24 25 -26 -27 28 29 -30 31 -32 33 -34 -35 36 0
-1 -2 3 4 5 6 -7 -8 9 10 11 12 13 14 15 16 17 18 19 20 21 22 -23 -24 25 26 -27 28 29 -30 31 32 -33 -34 35 36 0
1 -2 3 4 -5 -6 -7 8 -9 10 11 -12 13 -14 -15 16 -17 18 19 20 21 22 -23 -24 25 -26 -27 28 29 -30 31 -32 33 -34 -35 36 0
-1 -2 3 4 -5 -6 -7 8 -9 10 11 -12 13 -14 -15 16 -17 18 19 20 21 22 -23 -24 25 -26 -27 28 29 -30 31 -32 33 -34 -35 36 0
-1 -2 3 4 -5 -6 -7 8 -9 10 11 -12 13 -14 -15 16 -17 18 19 20 21 22 -23 -24 -25 26 -27 -28 29 30 -31 -32 33 -34 35 36 0
1 -2 3 4 -5 -6 -7 8 -9 10 11 -12 13 -14 -15 16 -17 18 19 20 21 22 -23 -24 -25 26 -27 -28 29 30 -31 -32 33 -34 35 36 0
1 -2 3 4 5 6 -7 8 -9 10 -11 -12 13 -14 -15 16 -17 18 19 20 21 22 -23 24 25 -26 -27 -28 29 30 31 -32 33 34 35 36 0
-1 -2 3 4 5 6 -7 8 -9 10 -11 -12 13 -14 -15 16 -17 18 19 20 21 22 -23 24 25 -26 -27 -28 29 30 31 -32 33 34 35 36 0
1 -2 3 4 5 6 -7 8 -9 10 11 12 13 -14 -15 16 17 18 19 20 21 22 23 24 25 26 27 28 -29 -30 31 32 33 34 -35 -36 0
-1 -2 3 4 5 6 -7 8 -9 10 11 12 13 -14 -15 16 17 18 19 20 21 22 23 24 25 26 27 28 -29 -30 31 32 33 34 -35 -36 0
-1 -2 3 4 5 6 -7 8 -9 10 -11 -12 13 -14 -15 16 -17 18 19 20 21 22 23 -24 -25 26 -27 -28 29 -30 -31 -32 33 -34 -35 36 0
1 -2 3 4 5 6 -7 8 -9 10 -11 -12 13 -14 -15 16 -17 18 19 20 21 22 23 -24 -25 26 -27 -28 29 -30 -31 -32 33 -34 -35 36 0
1 -2 3 4 5 6 -7 8 -9 10 -11 -12 13 -14 -15 16 -17 -18 19 20 21 22 23 24 25 -26 -27 28 -29 -30 31 -32 -33 34 -35 -36 0
-1 -2 3 4 5 6 -7 8 -9 10 -11 -12 13 -14 -15 16 -17 -18 19 20 21 22 23 24 25 -26 -27 28 -29 -30 31 -32 -33 34 -35 -36 0
-1 -2 3 4 -5 -6 -7 8 9 -10 11 -12 13 -14 -15 16 17 18 19 20 21 22 23 24 25 26 27 28 -29 -30 31 32 33 34 -35 -36 0
1 -2 -3 4 5 6 -7 8 9 -10 11 12 13 -14 -15 16 17 18 19 20 21 22 23 24 25 26 27 28 -29 -30 31 32 33 34 -35 -36 0
1 2 -3 -4 5 6 7 8 9 -10 11 12 -13 -14 -15 16 17 18 -19 20 21 22 23 24 25 26 27 28 -29 -30 31 32 33 34 -35 -36 0
-1 -2 3 4 -5 -6 -7 8 9 -10 11 -12 13 -14 -15 16 17 18 19 20 21 22 23 24 25 -26 -27 28 29 30 31 -32 -33 34 35 36 0
-1 -2 3 4 -5 -6 -7 8 9 -10 11 -12 13 -14 -15 16 17 18 19 20 21 22 23 24 25 -26 -27 -28 -29 30 31 -32 33 34 -35 36 0
-1 -2 3 4 -5 -6 -7 8 9 -10 11 -12 13 -14 -15 -16 17 18 19 20 21 22 -23 24 25 -26 -27 -28 29 30 31 -32 33 34 35 36 0
1 2 3 4 -5 -6 -7 -8 9 -10 11 -12 -13 14 -15 -16 17 18 19 20 21 22 -23 24 25 -26 -27 -28 29 30 31 -32 33 34 35 36 0
-1 -2 3 4 -5 -6 -7 8 9 -10 11 -12 13 14 -15 -16 17 18 19 20 21 22 -23 24 25 -26 27 -28 29 30 31 -32 -33 34 35 36 0
1 2 3 4 -5 -6 7 -8 9 -10 11 -12 -13 14 -15 -16 17 18 -19 20 21 22 -23 24 25 -26 27 -28 29 30 -31 -32 33 -34 -35 36 0
1 2 3 4 -5 -6 7 -8 9 -10 11 -12 -13 14 -15 -16 17 18 -19 20 21 22 -23 24 25 -26 27 -28 29 -30 -31 -32 33 -34 -35 36 0
1 2 3 4 -5 -6 7 8 9 -10 11 -12 13 -14 -15 -16 17 18 -19 20 21 22 -23 24 -25 -26 27 -28 29 -30 31 32 33 34 -35 36 0
1 2 3 4 -5 -6 7 8 9 -10 11 -12 13 -14 -15 -16 17 18 -19 20 21 22 -23 24 -25 -26 27 -28 29 -30 31 32 33 34 -35 -36 0
1 2 3 4 -5 -6 7 8 9 -10 11 -12 13 -14 -15 -16 17 18 -19 20 21 22 -23 24 25 -26 27 -28 29 -30 -31 -32 33 -34 -35 36 0
1 2 3 4 -5 -6 7 8 9 -10 11 -12 13 -14 -15 -16 17 18 -19 20 21 22 -23 24 25 -26 27 -28 29 30 -31 -32 33 -34 -35 36 0
1 2 3 4 -5 6 7 8 9 -10 11 -12 13 -14 -15 -16 17 -18 -19 20 21 22 -23 24 25 -26 27 -28 29 30 -31 -32 33 -34 -35 36 0
1 2 3 4 -5 -6 7 8 9 -10 11 -12 13 -14 -15 -16 17 18 -19 20 21 22 -23 24 -25 26 -27 28 -29 30 31 -32 -33 34 -35 -36 0
1 2 3 4 -5 -6 -7 -8 9 -10 11 -12 -13 14 -15 -16 17 18 19 20 21 22 -23 24 25 -26 -27 28 -29 30 31 -32 -33 34 -35 -36 0
1 2 3 4 -5 -6 -7 -8 9 -10 11 -12 -13 14 -15 -16 17 18 19 20 21 22 -23 24 25 -26 -27 28 -29 30 31 -32 33 -34 35 36 0
1 2 3 4 -5 -6 -7 -8 9 -10 11 -12 -13 14 -15 -16 17 18 19 20 21 22 -23 24 25 -26 -27 28 29 -30 31 -32 33 -34 -35 36 0
1 -2 -3 4 5 6 -7 8 9 -10 11 12 -13 -14 -15 -16 17 18 19 20 21 22 -23 -24 25 26 -27 28 29 -30 31 32 -33 -34 35 36 0
1 -2 -3 4 5 6 -7 8 9 -10 11 12 13 -14 -15 -16 17 18 19 20 21 22 -23 -24 25 -26 -27 28 29 -30 31 -32 33 -34 -35 36 0
-1 -2 3 4 5 6 -7 8 9 -10 11 12 13 -14 -15 -16 17 18 19 20 21 22 -23 -24 25 -26 -27 28 29 -30 31 -32 33 -34 -35 36 0
-1 -2 3 4 -5 -6 -7 8 9 -10 11 -12 13 -14 -15 -16 17 18 19 20 21 22 -23 24 25 -26 -27 28 29 -30 31 -32 33 -34 -35 36 0
-1 -2 3 4 -5 -6 -7 8 9 -10 11 -12 13 -14 -15 -16 17 18 19 20 21 22 -23 24 25 -26 -27 28 -29 30 31 -32 33 -34 35 36 0
-1 -2 3 4 -5 -6 -7 8 9 -10 11 -12 13 -14 -15 -16 17 18 19 20 21 22 -23 24 25 -26 -27 28 -29 30 31 -32 -33 34 -35 -36 0
1 2 3 4 -5 6 -7 8 9 -10 11 -12 -13 -14 -15 -16 17 -18 19 20 21 22 -23 24 25 26 -27 28 29 30 31 32 -33 -34 35 36 0
1 2 3 4 -5 -6 -7 8 9 -10 11 -12 -13 -14 -15 -16 17 18 19 20 21 22 -23 24 25 26 -27 28 -29 30 31 32 -33 -34 35 36 0
-1 -2 3 4 5 6 -7 8 9 10 11 12 13 -14 -15 -16 17 18 19 20 21 22 -23 24 25 -26 -27 28 -29 30 31 -32 -33 34 -35 -36 0
-1 -2 3 4 5 6 -7 8 9 10 11 12 13 -14 -15 -16 17 18 19 20 21 22 -23 24 25 -26 -27 28 29 -30 31 -32 33 -34 -35 36 0
-1 -2 3 4 5 6 -7 8 9 10 11 12 13 -14 -15 -16 17 18 19 20 21 22 -23 24 25 26 27 -28 29 -30 31 32 33 -34 -35 36 0
-1 -2 3 4 5 6 -7 8 9 10 11 12 13 -14 -15 -16 17 18 19 20 21 22 -23 24 25 26 27 -28 29 -30 31 32 33 34 -35 36 0
-1 -2 3 4 5 6 -7 8 9 10 11 12 13 -14 -15 -16 17 18 19 20 21 22 -23 24 25 26 27 -28 29 -30 31 32 33 34 -35 -36 0
1 2 3 -4 -5 6 7 8 9 10 -11 12 13 -14 -15 -16 17 18 -19 20 21 22 23 24 -25 26 -27 -28 -29 -30 31 -32 -33 34 35 -36 0
1 2 3 -4 -5 6 -7 8 9 10 -11 12 -13 -14 -15 -16 17 18 19 20 21 22 23 24 25 26 -27 -28 -29 -30 31 32 -33 34 35 -36 0
1 -2 -3 4 5 6 -7 8 9 -10 11 12 -13 -14 -15 -16 17 18 19 20 21 22 23 24 25 26 -27 -28 -29 -30 31 32 -33 34 35 -36 0
1 2 3 4 -5 6 -7 8 9 -10 11 -12 -13 -14 -15 -16 17 -18 19 20 21 22 -23 24 -25 -26 27 -28 29 30 -31 -32 33 -34 -35 36 0
1 2 3 4 -5 -6 -7 8 9 -10 11 -12 -13 -14 -15 -16 17 18 19 20 21 22 -23 24 -25 -26 27 -28 29 30 -31 -32 33 -34 -35 36 0
1 2 3 4 -5 -6 -7 8 9 -10 11 -12 -13 -14 -15 -16 17 18 19 20 21 22 -23 24 -25 -26 27 -28 29 -30 -31 -32 33 -34 -35 36 0
-1 -2 3 4 -5 -6 -7 8 9 -10 11 -12 13 -14 -15 -16 17 18 19 20 21 22 -23 24 25 26 27 -28 29 -30 31 32 33 34 -35 36 0
-1 -2 3 4 -5 -6 -7 8 9 -10 11 -12 13 -14 -15 -16 17 18 19 20 21 22 -23 24 25 26 27 -28 29 -30 31 32 33 34 -35 -36 0
-1 -2 3 4 -5 -6 -7 8 9 -10 11 -12 13 -14 -15 -16 17 18 19 20 21 22 -23 24 25 26 27 -28 29 -30 31 32 33 -34 -35 36 0
-1 -2 3 4 -5 -6 -7 8 9 -10 11 -12 13 -14 -15 -16 17 18 19 20 21 22 -23 24 25 26 27 -28 29 30 31 32 33 -34 -35 36 0
-1 -2 3 4 -5 6 -7 8 9 -10 11 -12 13 -14 -15 -16 17 -18 19 20 21 22 -23 24 25 26 27 -28 29 30 31 32 33 -34 -35 36 0
-1 -2 3 4 -5 6 -7 8 9 -10 11 -12 13 -14 -15 -16 17 -18 19 20 21 22 -23 24 25 -26 -27 -28 29 30 31 -32 33 34 35 36 0
-1 2 -3 -4 5 6 -7 -8 9 10 -11 12 13 14 15 -16 17 -18 19 20 21 22 -23 24 25 -26 -27 -28 29 30 31 -32 33 34 35 36 0
1 2 3 4 -5 -6 7 8 9 -10 11 -12 13 14 15 -16 17 18 19 -20 -21 22 -23 24 -25 26 27 -28 -29 30 -31 -32 33 34 35 36 0
1 2 3 4 -5 -6 7 8 9 -10 11 -12 13 14 15 -16 17 18 19 -20 -21 22 -23 24 -25 26 27 -28 29 30 -31 -32 33 34 35 36 0
1 2 3 4 -5 -6 7 8 9 -10 11 -12 13 14 15 -16 17 18 19 -20 -21 22 -23 24 -25 26 27 -28 29 30 31 -32 -33 34 35 36 0
1 2 3 4 -5 -6 7 8 9 -10 11 -12 13 14 15 -16 17 18 19 -20 -21 22 -23 24 -25 26 27 -28 29 -30 -31 -32 33 34 -35 36 0
1 2 3 4 -5 -6 7 8 9 -10 11 -12 13 14 15 -16 17 18 19 -20 -21 22 -23 24 -25 26 27 -28 29 -30 -31 -32 33 34 -35 -36 0
1 2 3 4 -5 6 7 8 9 -10 11 -12 13 14 15 -16 17 -18 19 -20 -21 22 -23 24 -25 26 27 -28 29 30 -31 -32 33 34 35 36 0
1 2 3 4 -5 6 7 8 9 -10 11 -12 13 14 15 -16 17 -18 19 -20 -21 22 -23 24 -25 26 27 -28 29 30 31 -32 -33 34 35 36 0
-1 -2 3 -4 -5 6 -7 -8 9 -10 11 -12 13 14 15 -16 17 -18 -19 -20 -21 22 -23 24 -25 26 27 -28 29 30 31 -32 -33 34 35 36 0
-1 -2 3 4 5 6 -7 8 -9 10 11 12 13 14 15 -16 17 18 19 -20 -21 22 -23 24 -25 26 27 -28 29 -30 -31 -32 33 34 -35 36 0
-1 -2 3 4 5 6 -7 8 -9 10 11 12 13 14 15 -16 17 18 19 -20 -21 22 -23 24 -25 26 27 -28 29 -30 -31 -32 33 34 -35 -36 0
1 2 3 -4 -5 6 7 8 -9 10 11 -12 13 14 15 -16 17 -18 -19 -20 -21 22 -23 24 -25 26 27 -28 29 30 31 -32 -33 34 35 36 0
-1 -2 3 4 5 6 -7 8 -9 10 11 12 13 14 15 -16 17 18 19 -20 -21 22 23 24 -25 26 27 -28 -29 -30 -31 -32 33 34 35 -36 0
1 2 3 4 -5 6 7 8 9 -10 11 -12 13 14 15 -16 -17 18 19 -20 -21 22 23 24 -25 26 27 -28 29 -30 -31 -32 33 34 -35 -36 0
1 2 3 4 -5 -6 7 8 9 -10 11 -12 13 14 15 -16 -17 18 19 -20 -21 22 23 24 -25 26 27 -28 29 -30 -31 -32 33 34 -35 -36 0
1 2 3 4 -5 -6 7 8 9 -10 11 -12 13 14 15 -16 -17 18 19 -20 -21 22 23 24 -25 26 -27 28 29 30 -31 -32 33 34 35 36 0
1 2 3 4 -5 6 7 8 9 -10 11 -12 13 14 15 -16 -17 18 19 -20 -21 22 23 24 -25 26 -27 28 29 30 -31 -32 33 34 35 36 0
1 2 3 4 -5 6 7 8 9 -10 11 -12 13 14 15 -16 -17 18 19 -20 -21 22 23 24 -25 26 -27 28 29 30 31 -32 33 34 35 36 0
1 2 3 4 -5 -6 7 8 9 -10 11 -12 13 14 15 -16 -17 18 19 -20 -21 22 23 24 -25 26 -27 28 29 30 31 -32 33 34 35 36 0
-1 -2 3 4 -5 -6 -7 8 9 -10 11 -12 13 -14 15 -16 -17 18 19 20 -21 22 23 24 -25 26 -27 28 29 30 -31 -32 33 34 35 36 0
-1 -2 3 4 -5 6 -7 8 9 -10 11 -12 13 -14 15 -16 -17 18 19 20 -21 22 23 24 -25 26 -27 28 29 30 -31 -32 33 34 35 36 0
-1 -2 3 4 -5 6 -7 8 9 -10 11 -12 13 -14 15 -16 -17 18 19 20 -21 22 23 24 25 26 27 -28 29 -30 31 32 33 34 -35 -36 0
-1 -2 3 4 -5 -6 -7 8 9 -10 11 -12 13 -14 15 -16 -17 18 19 20 -21 22 23 24 25 26 27 -28 29 -30 31 32 33 34 -35 -36 0
1 2 3 -4 -5 6 7 8 9 -10 11 12 -13 -14 15 -16 17 18 -19 20 -21 22 23 24 25 26 27 -28 -29 -30 31 32 33 34 35 -36 0
-1 -2 3 -4 -5 6 7 -8 9 -10 11 12 13 -14 15 -16 17 18 19 20 -21 22 23 24 25 26 27 -28 -29 -30 31 32 33 34 35 -36 0
1 2 3 -4 -5 6 7 8 9 -10 11 -12 13 -14 15 -16 17 -18 -19 20 -21 22 -23 24 -25 26 27 -28 29 30 31 -32 -33 34 35 36 0
-1 -2 3 4 -5 -6 -7 8 9 -10 11 -12 13 -14 15 -16 17 18 19 20 -21 22 -23 24 25 26 27 -28 29 -30 31 32 33 34 -35 36 0
-1 -2 3 4 -5 -6 -7 8 9 -10 11 -12 13 -14 15 -16 17 18 19 20 -21 22 -23 24 25 26 27 -28 29 -30 31 32 33 34 -35 -36 0
-1 -2 3 4 5 6 7 -8 9 10 11 12 13 -14 15 -16 17 18 19 20 -21 22 -23 24 25 26 27 -28 29 -30 31 32 33 34 -35 36 0
-1 -2 3 4 5 6 7 -8 9 10 11 12 13 -14 15 -16 17 18 19 20 -21 22 -23 24 25 26 27 -28 29 -30 31 32 33 34 -35 -36 0
1 -2 -3 4 5 6 -7 8 9 -10 11 12 13 -14 15 -16 17 18 19 20 -21 22 23 24 25 26 27 -28 -29 -30 31 32 33 34 35 -36 0
-1 -2 3 4 -5 -6 -7 8 9 -10 11 -12 13 -14 15 -16 17 18 19 20 -21 22 -23 24 25 26 27 28 -29 30 31 32 33 34 -35 -36 0
-1 -2 3 -4 -5 6 7 -8 9 -10 11 -12 -13 14 15 -16 17 -18 -19 20 -21 22 -23 24 25 -26 27 -28 29 30 31 32 -33 34 35 36 0
1 2 3 4 -5 -6 -7 -8 9 10 11 -12 -13 14 15 -16 17 18 19 20 -21 -22 -23 24 25 26 27 28 29 -30 31 32 33 34 -35 -36 0
1 2 3 4 -5 -6 7 8 9 10 11 -12 13 14 15 -16 17 18 19 -20 -21 -22 -23 24 -25 26 27 28 29 -30 -31 -32 33 34 -35 -36 0
1 2 -3 -4 5 6 7 8 -9 10 11 12 13 14 15 -16 17 18 -19 -20 -21 22 -23 24 -25 26 27 28 -29 30 31 32 33 34 -35 -36 0
1 -2 3 4 5 6 -7 8 -9 10 11 12 -13 14 15 -16 17 18 19 -20 -21 22 -23 24 25 26 27 28 -29 30 31 32 33 34 -35 -36 0
-1 2 3 4 5 6 -7 -8 -9 10 11 12 13 14 15 -16 17 18 -19 -20 -21 22 -23 24 -25 26 27 28 -29 30 31 32 33 34 -35 -36 0
-1 2 3 4 5 6 -7 -8 -9 10 11 12 13 14 15 -16 17 18 19 20 -21 22 -23 24 25 26 27 -28 29 -30 31 32 33 34 -35 -36 0
-1 2 3 4 5 6 -7 -8 -9 10 11 12 13 14 15 -16 17 18 19 20 -21 22 -23 24 25 26 27 -28 29 -30 31 32 33 34 -35 36 0
-1 2 3 4 5 6 -7 -8 -9 10 11 12 13 14 15 -16 17 18 19 20 -21 22 -23 24 25 26 -27 28 29 -30 31 32 33 -34 -35 36 0
-1 2 3 4 5 6 -7 -8 -9 10 11 12 13 14 15 -16 17 -18 19 20 -21 22 -23 -24 25 26 -27 28 29 30 31 -32 -33 34 35 36 0
-1 2 3 4 5 6 -7 -8 -9 10 11 12 13 14 15 -16 17 18 19 20 -21 22 -23 24 25 26 -27 28 -29 30 31 -32 -33 34 -35 -36 0
-1 -2 3 4 5 6 -7 8 -9 10 11 12 13 14 15 -16 17 18 19 -20 -21 22 -23 24 -25 26 -27 28 29 -30 31 -32 33 34 -35 -36 0
-1 -2 3 4 5 6 -7 8 -9 10 11 12 13 14 15 -16 17 18 19 -20 -21 22 -23 24 -25 26 -27 28 29 -30 -31 -32 33 34 -35 -36 0
1 2 3 4 -5 -6 7 8 9 -10 11 -12 13 14 15 -16 17 18 19 -20 -21 22 -23 24 -25 26 -27 28 29 -30 31 -32 33 34 -35 -36 0
1 2 3 4 -5 -6 7 8 9 -10 11 -12 13 14 15 -16 17 18 19 -20 -21 22 -23 24 -25 26 -27 28 29 -30 -31 -32 33 34 -35 -36 0
1 -2 -3 4 -5 -6 7 -8 -9 10 -11 -12 13 14 15 16 17 18 19 -20 -21 22 -23 -24 -25 26 -27 28 -29 -30 -31 -32 33 34 35 36 0
1 -2 -3 4 -5 -6 7 -8 -9 10 -11 -12 13 14 15 16 17 18 19 -20 -21 22 -23 -24 -25 26 -27 28 -29 -30 31 -32 33 34 35 36 0
-1 -2 3 -4 -5 6 -7 8 -9 -10 11 -12 13 14 15 16 17 -18 19 -20 -21 22 -23 24 -25 26 -27 28 -29 -30 31 -32 33 34 35 36 0
-1 -2 3 -4 -5 6 -7 8 -9 -10 11 -12 13 14 15 16 17 -18 19 -20 -21 22 -23 24 -25 26 -27 28 -29 -30 -31 -32 33 34 35 36 0
1 -2 3 4 5 6 -7 8 -9 10 11 12 -13 -14 15 16 17 18 19 20 21 22 -23 24 25 26 27 -28 29 -30 31 32 33 34 -35 36 0
1 -2 3 4 5 6 -7 8 -9 10 11 12 -13 -14 15 16 17 18 19 20 21 22 -23 24 25 26 27 -28 29 -30 31 32 33 34 -35 -36 0
1 -2 3 4 5 6 -7 8 -9 10 11 12 -13 -14 15 16 17 18 19 20 21 22 -23 -24 25 26 27 -28 29 -30 31 32 33 34 -35 36 0
1 -2 -3 4 5 6 -7 8 -9 10 11 12 -13 -14 15 16 17 18 19 20 21 22 -23 -24 25 26 27 -28 29 -30 31 32 33 34 -35 36 0
1 -2 -3 4 5 6 -7 8 -9 10 11 12 -13 -14 15 16 17 18 19 20 21 22 -23 24 25 26 27 -28 29 -30 31 32 33 34 -35 36 0
1 -2 -3 4 5 6 -7 8 -9 10 11 12 -13 -14 15 16 17 18 19 20 21 22 -23 24 25 26 27 -28 29 -30 31 32 33 34 -35 -36 0
1 -2 -3 4 5 6 -7 8 -9 10 11 12 13 -14 15 16 17 18 19 20 21 22 -23 24 25 26 27 -28 29 -30 31 32 33 34 -35 -36 0
1 -2 -3 4 5 6 -7 8 -9 10 11 12 13 -14 15 16 17 18 19 20 21 22 -23 24 25 26 27 -28 29 -30 31 32 33 34 -35 36 0
1 -2 -3 4 5 6 -7 8 -9 10 11 12 13 -14 15 16 17 18 19 20 21 22 -23 -24 25 26 27 -28 29 -30 31 32 33 34 -35 36 0
1 -2 3 4 5 6 -7 8 -9 10 11 12 13 -14 15 16 17 18 19 20 21 22 -23 -24 25 26 27 -28 29 -30 31 32 33 34 -35 36 0
-1 -2 3 4 5 6 -7 8 -9 10 11 12 13 -14 15 16 17 18 19 20 21 22 -23 -24 25 26 27 -28 29 -30 31 32 33 34 -35 36 0
-1 -2 3 4 5 6 -7 8 -9 10 11 12 13 -14 15 16 17 18 19 20 21 22 -23 24 25 26 27 -28 29 -30 31 32 33 34 -35 36 0
1 -2 3 4 5 6 -7 8 -9 10 11 12 13 -14 15 16 17 18 19 20 21 22 -23 24 25 26 27 -28 29 -30 31 32 33 34 -35 36 0
1 -2 3 4 5 6 -7 8 -9 10 11 12 13 -14 15 16 17 18 19 20 21 22 -23 24 25 26 27 -28 29 -30 31 32 33 34 -35 -36 0
-1 -2 3 4 5 6 -7 8 -9 10 11 12 13 -14 15 16 17 18 19 20 21 22 -23 24 25 26 27 -28 29 -30 31 32 33 34 -35 -36 0
1 2 3 4 -5 -6 -7 -8 9 10 -11 -12 -13 -14 15 16 17 18 19 20 21 22 -23 -24 25 26 27 -28 29 -30 31 32 33 -34 -35 36 0
1 -2 3 4 5 6 -7 8 -9 10 11 12 -13 -14 15 16 17 18 19 20 21 22 -23 24 25 26 27 -28 29 -30 31 32 33 -34 -35 36 0
1 -2 3 4 5 6 -7 8 -9 10 11 12 -13 -14 15 16 17 18 19 20 21 22 -23 -24 25 26 27 -28 29 -30 31 32 33 -34 -35 36 0
1 -2 -3 4 5 6 -7 8 -9 10 11 12 -13 -14 15 16 17 18 19 20 21 22 -23 -24 25 26 27 -28 29 -30 31 32 33 -34 -35 36 0
1 -2 -3 4 5 6 -7 8 -9 10 11 12 -13 -14 15 16 17 18 19 20 21 22 -23 24 25 26 27 -28 29 -30 31 32 33 -34 -35 36 0
1 -2 -3 4 5 6 -7 8 -9 10 11 12 13 -14 15 16 17 18 19 20 21 22 -23 24 25 26 27 -28 29 -30 31 32 33 -34 -35 36 0
1 -2 -3 4 5 6 -7 8 -9 10 11 12 13 -14 15 16 17 18 19 20 21 22 -23 -24 25 26 27 -28 29 -30 31 32 33 -34 -35 36 0
1 -2 3 4 5 6 -7 8 -9 10 11 12 13 -14 15 16 17 18 19 20 21 22 -23 -24 25 26 27 -28 29 -30 31 32 33 -34 -35 36 0
-1 -2 3 4 5 6 -7 8 -9 10 11 12 13 -14 15 16 17 18 19 20 21 22 -23 -24 25 26 27 -28 29 -30 31 32 33 -34 -35 36 0
-1 -2 3 4 5 6 -7 8 -9 10 11 12 13 -14 15 16 17 18 19 20 21 22 -23 24 25 26 27 -28 29 -30 31 32 33 -34 -35 36 0
1 -2 3 4 5 6 -7 8 -9 10 11 12 13 -14 15 16 17 18 19 20 21 22 -23 24 25 26 27 -28 29 -30 31 32 33 -34 -35 36 0
1 -2 3 4 5 6 -7 8 -9 10 11 12 -13 -14 15 16 17 18 19 20 21 22 23 24 25 26 27 28 -29 -30 31 32 33 34 -35 -36 0
1 2 3 -4 -5 6 -7 8 -9 10 -11 12 -13 -14 15 16 17 18 19 20 21 22 23 24 25 26 27 28 -29 -30 31 32 33 34 -35 -36 0
1 -2 -3 4 -5 -6 -7 8 -9 10 -11 -12 -13 -14 15 16 17 18 19 20 21 22 23 24 25 26 27 28 -29 -30 31 32 33 34 -35 -36 0
1 -2 -3 4 5 6 -7 8 -9 10 11 12 -13 -14 15 16 17 18 19 20 21 22 23 24 25 26 27 28 -29 -30 31 32 33 34 -35 -36 0
1 -2 3 4 5 6 -7 8 -9 10 11 12 13 -14 15 16 17 18 19 20 21 22 23 24 25 26 27 28 -29 -30 31 32 33 34 -35 -36 0
-1 -2 3 4 5 6 -7 8 -9 10 11 12 13 -14 15 16 17 18 19 20 21 22 23 24 25 26 27 28 -29 -30 31 32 33 34 -35 -36 0
1 -2 -3 4 -5 -6 -7 8 -9 10 -11 -12 13 -14 15 16 17 18 19 20 21 22 23 24 25 26 27 28 -29 -30 31 32 33 34 -35 -36 0
1 -2 -3 4 5 6 -7 8 -9 10 11 12 13 -14 15 16 17 18 19 20 21 22 23 24 25 26 27 28 -29 -30 31 32 33 34 -35 -36 0
1 -2 -3 4 5 6 7 8 -9 10 11 12 13 -14 15 16 17 18 -19 20 21 22 23 24 -25 -26 27 28 -29 -30 31 32 33 34 -35 -36 0
1 -2 -3 4 -5 -6 7 8 -9 10 -11 -12 13 -14 15 16 17 18 -19 20 21 22 23 24 -25 -26 27 28 -29 -30 31 32 33 34 -35 -36 0
1 2 3 -4 -5 6 7 8 -9 10 -11 12 13 -14 15 16 17 18 -19 20 21 22 23 24 -25 -26 27 28 -29 -30 31 32 33 34 -35 -36 0
1 2 -3 -4 5 -6 7 8 -9 10 -11 -12 -13 -14 15 16 17 18 -19 20 21 22 23 24 25 -26 27 28 -29 -30 -31 -32 33 34 -35 -36 0
1 2 -3 -4 5 -6 7 8 -9 10 -11 -12 -13 -14 15 16 17 18 -19 20 21 22 23 24 25 -26 27 28 29 30 -31 -32 33 34 35 36 0
1 2 3 -4 -5 6 -7 8 -9 10 -11 12 -13 -14 15 16 17 18 19 20 21 22 23 24 -25 -26 27 28 -29 -30 -31 -32 33 34 -35 -36 0
1 -2 3 4 5 6 -7 8 -9 10 11 12 -13 -14 15 16 17 18 19 20 21 22 23 24 -25 -26 27 28 -29 -30 -31 -32 33 34 -35 -36 0
1 -2 -3 4 -5 -6 -7 8 -9 10 -11 -12 -13 -14 15 16 17 18 19 20 21 22 23 24 -25 -26 27 28 -29 -30 -31 -32 33 34 -35 -36 0
1 -2 -3 4 -5 -6 -7 8 -9 10 -11 -12 -13 -14 15 16 17 18 19 20 21 22 23 24 -25 -26 27 28 29 30 -31 -32 33 34 35 36 0
1 -2 -3 4 5 6 -7 8 -9 10 11 12 -13 -14 15 16 17 18 19 20 21 22 23 24 -25 -26 27 28 -29 -30 -31 -32 33 34 -35 -36 0
1 -2 -3 4 -5 6 -7 8 9 -10 -11 12 -13 -14 15 16 17 18 19 20 21 22 23 24 -25 -26 27 28 -29 -30 -31 -32 33 34 -35 -36 0
1 -2 -3 4 -5 6 -7 8 9 -10 -11 12 -13 -14 15 16 17 18 19 20 21 22 23 24 25 26 27 28 -29 -30 31 32 33 34 -35 -36 0
1 2 3 4 -5 6 -7 8 -9 -10 -11 12 -13 -14 15 16 17 18 19 20 21 -22 -23 24 -25 -26 -27 28 29 -30 -31 32 33 34 -35 -36 0
1 2 3 4 -5 6 7 8 -9 -10 -11 12 13 -14 15 16 17 18 -19 20 21 -22 -23 24 25 -26 -27 28 29 -30 31 32 33 34 -35 -36 0
1 2 -3 4 -5 -6 7 8 -9 -10 11 -12 -13 -14 15 16 17 18 -19 20 21 -22 -23 24 25 -26 -27 28 29 -30 31 32 33 34 -35 -36 0
1 2 -3 4 -5 -6 7 8 -9 -10 11 -12 -13 -14 15 16 17 18 19 -20 21 -22 -23 24 -25 26 27 -28 29 -30 -31 -32 33 34 -35 36 0
1 2 -3 4 -5 -6 7 8 -9 -10 11 -12 -13 -14 15 16 17 18 19 -20 21 -22 -23 24 -25 26 27 -28 29 -30 -31 -32 33 34 -35 -36 0
1 -2 -3 4 -5 6 -7 8 9 -10 -11 12 -13 -14 15 16 17 18 19 -20 21 -22 -23 24 -25 26 27 -28 29 -30 -31 -32 33 34 -35 36 0
1 -2 -3 4 -5 6 -7 8 9 -10 -11 12 -13 -14 15 16 17 18 19 -20 21 -22 -23 24 -25 26 27 -28 29 -30 -31 -32 33 34 -35 -36 0
1 2 3 4 -5 6 7 8 -9 -10 -11 12 13 -14 15 16 17 18 19 -20 21 -22 -23 24 -25 -26 27 -28 29 -30 31 32 33 34 -35 -36 0
1 2 3 4 -5 6 7 8 -9 -10 -11 12 13 -14 15 16 17 18 19 -20 21 -22 -23 24 -25 -26 27 -28 29 -30 31 32 33 34 -35 36 0
1 2 3 -4 5 6 7 8 -9 10 -11 12 13 -14 15 16 -17 18 19 -20 21 -22 23 24 -25 -26 27 -28 29 -30 31 32 33 34 -35 -36 0
1 2 -3 4 5 6 7 8 -9 -10 -11 12 -13 -14 15 16 17 -18 19 -20 21 -22 23 -24 -25 26 27 -28 -29 30 -31 -32 33 34 35 36 0
-1 -2 3 4 -5 -6 -7 -8 9 10 -11 12 13 14 15 16 17 -18 19 20 21 -22 23 -24 25 26 -27 28 -29 30 31 32 33 -34 35 36 0
-1 -2 3 4 -5 -6 -7 -8 9 10 -11 12 13 14 15 16 17 -18 19 20 21 -22 23 -24 25 26 -27 28 -29 30 31 32 -33 -34 35 36 0
1 2 3 4 -5 -6 -7 -8 9 10 -11 12 13 -14 15 16 17 -18 19 -20 21 -22 23 -24 25 26 -27 28 -29 30 31 32 33 -34 35 36 0
-1 -2 3 4 -5 -6 -7 -8 9 10 11 -12 13 14 15 16 -17 18 19 20 21 -22 23 24 25 26 -27 28 29 30 31 32 -33 -34 35 36 0
-1 -2 3 4 -5 -6 -7 -8 9 10 11 -12 13 14 15 16 -17 18 19 20 21 -22 23 24 -25 26 -27 28 29 30 -31 -32 33 34 35 36 0
1 2 3 4 -5 -6 7 8 9 10 11 -12 13 14 15 16 -17 18 19 20 21 -22 23 24 -25 26 -27 28 29 30 -31 -32 33 34 35 36 0
1 2 -3 -4 5 6 7 8 -9 10 -11 12 -13 -14 15 16 -17 18 19 -20 21 -22 23 24 -25 26 27 -28 29 -30 -31 -32 33 34 -35 -36 0
1 -2 -3 4 -5 -6 7 8 -9 10 -11 12 13 -14 15 16 -17 18 19 -20 21 -22 23 24 -25 -26 27 -28 29 -30 31 32 33 34 -35 -36 0
1 2 -3 4 -5 -6 7 8 -9 -10 11 -12 -13 -14 15 16 17 18 19 -20 21 -22 -23 24 -25 26 27 -28 -29 30 -31 -32 33 34 35 36 0
1 2 -3 4 -5 -6 7 8 -9 -10 11 -12 -13 -14 15 16 17 18 19 -20 21 -22 -23 24 25 -26 27 28 -29 30 31 32 -33 -34 35 36 0
1 2 3 4 -5 -6 7 8 9 10 11 -12 -13 -14 15 -16 17 18 19 -20 21 -22 -23 24 25 -26 27 28 -29 30 31 32 -33 -34 35 36 0
1 2 3 4 -5 -6 7 8 9 10 11 -12 -13 -14 15 -16 17 18 19 -20 21 -22 -23 24 25 -26 27 28 29 30 -31 -32 33 34 35 36 0
1 2 3 -4 -5 6 7 8 9 -10 11 -12 -13 -14 15 -16 17 -18 19 -20 21 -22 -23 24 25 -26 27 28 29 30 -31 -32 33 34 35 36 0
1 2 3 -4 -5 6 7 8 -9 10 11 -12 13 -14 15 -16 -17 18 -19 20 21 -22 23 24 -25 -26 27 28 29 -30 31 32 33 34 -35 -36 0
1 2 3 4 -5 -6 7 8 -9 10 11 -12 13 -14 15 -16 -17 18 -19 20 21 -22 23 24 -25 -26 27 28 29 -30 31 32 33 34 -35 -36 0
1 2 3 4 -5 -6 -7 8 -9 10 11 -12 -13 -14 15 -16 -17 18 19 20 21 -22 23 24 -25 -26 27 -28 29 30 -31 -32 33 -34 -35 36 0
1 2 3 4 -5 -6 -7 8 -9 10 11 -12 -13 -14 15 -16 -17 18 19 20 21 -22 23 24 25 26 27 -28 29 -30 31 32 33 34 -35 -36 0
1 2 3 -4 -5 6 -7 8 -9 10 11 -12 -13 -14 15 -16 -17 18 19 20 21 -22 23 24 25 26 27 -28 29 -30 31 32 33 34 -35 -36 0
1 2 3 -4 -5 6 -7 8 -9 10 11 -12 -13 -14 15 -16 -17 18 19 20 21 -22 23 24 -25 -26 27 -28 29 30 -31 -32 33 -34 -35 36 0
1 -2 3 4 -5 -6 -7 8 -9 10 11 -12 -13 -14 15 -16 -17 18 19 20 21 -22 23 24 -25 -26 27 -28 29 30 -31 -32 33 -34 -35 36 0
1 -2 3 4 -5 -6 -7 8 -9 10 11 -12 -13 -14 15 -16 -17 18 19 20 21 -22 23 24 25 26 27 -28 29 -30 31 32 33 34 -35 -36 0
1 -2 3 4 -5 -6 -7 8 -9 10 11 -12 -13 -14 15 -16 -17 18 19 20 21 -22 23 24 -25 -26 27 28 -29 30 -31 32 -33 -34 35 36 0
1 2 3 4 -5 -6 -7 8 -9 10 11 -12 -13 -14 15 -16 -17 18 19 20 21 -22 23 24 -25 -26 27 28 -29 30 -31 32 -33 -34 35 36 0
1 2 3 -4 -5 6 -7 8 -9 10 11 -12 -13 -14 15 -16 -17 18 19 20 21 -22 23 24 -25 -26 27 28 -29 30 -31 32 -33 -34 35 36 0
1 2 3 4 -5 -6 -7 8 -9 10 11 -12 -13 -14 15 -16 -17 18 19 20 21 -22 23 24 -25 -26 27 -28 29 30 -31 32 -33 34 35 36 0
1 -2 3 4 -5 -6 -7 8 -9 10 11 -12 -13 -14 15 -16 -17 18 19 20 21 -22 23 24 -25 -26 27 -28 29 30 -31 32 -33 34 35 36 0
1 2 3 -4 -5 6 -7 8 -9 10 11 -12 -13 -14 15 -16 -17 18 19 20 21 -22 23 24 -25 -26 27 -28 29 30 -31 32 -33 34 35 36 0
1 -2 3 4 -5 -6 -7 8 -9 10 11 -12 13 -14 15 -16 -17 18 19 20 21 -22 23 24 25 -26 27 -28 29 30 31 -32 -33 34 35 36 0
-1 -2 3 4 -5 -6 -7 8 -9 10 11 -12 13 -14 15 -16 -17 18 19 20 21 -22 23 24 25 -26 27 -28 29 30 31 -32 -33 34 35 36 0
-1 -2 3 4 -5 -6 -7 8 -9 10 11 -12 13 -14 15 -16 -17 18 19 20 21 -22 23 24 25 26 27 -28 29 -30 31 32 33 34 -35 -36 0
1 -2 3 4 -5 -6 -7 8 -9 10 11 -12 13 -14 15 -16 -17 18 19 20 21 -22 23 24 25 26 27 -28 29 -30 31 32 33 34 -35 -36 0
1 2 3 -4 -5 6 7 8 -9 10 11 -12 13 -14 15 -16 -17 18 19 -20 21 -22 23 24 -25 -26 27 -28 29 -30 31 32 33 34 -35 -36 0
1 2 3 4 -5 -6 7 8 -9 10 11 -12 13 -14 15 -16 -17 18 19 -20 21 -22 23 24 -25 -26 27 -28 29 -30 31 32 33 34 -35 -36 0
1 -2 3 4 -5 -6 -7 8 -9 10 11 -12 -13 14 15 -16 -17 18 19 -20 21 -22 23 24 -25 -26 27 -28 29 -30 31 32 33 34 -35 -36 0
1 2 3 4 -5 -6 7 -8 -9 10 11 -12 -13 14 15 -16 -17 18 19 -20 21 -22 23 24 -25 -26 27 -28 29 -30 31 32 33 34 -35 -36 0
1 2 3 -4 -5 6 7 8 -9 10 11 -12 13 -14 15 -16 -17 18 19 -20 21 -22 23 24 -25 -26 27 28 -29 30 31 32 33 -34 -35 36 0
1 2 3 4 -5 -6 7 8 -9 10 11 -12 13 -14 15 -16 -17 18 19 -20 21 -22 23 24 -25 -26 27 28 -29 30 31 32 33 -34 -35 36 0
1 2 3 4 -5 -6 7 -8 -9 10 11 -12 -13 14 15 -16 -17 18 19 -20 21 -22 23 24 -25 -26 27 28 -29 30 31 32 33 -34 -35 36 0
1 -2 3 4 -5 -6 -7 8 -9 10 11 -12 -13 14 15 -16 -17 18 19 -20 21 -22 23 24 -25 -26 27 28 -29 30 31 32 33 -34 -35 36 0
1 -2 -3 4 5 6 -7 8 -9 10 11 12 -13 14 15 -16 -17 18 19 -20 21 -22 23 24 -25 -26 27 -28 29 -30 31 32 33 34 -35 -36 0
1 -2 -3 4 5 6 -7 8 -9 10 11 12 -13 14 15 -16 -17 18 19 -20 21 -22 23 -24 -25 -26 27 -28 29 -30 31 32 33 34 -35 36 0
1 -2 -3 4 5 6 -7 8 -9 10 11 12 -13 14 15 -16 -17 18 19 -20 21 -22 23 -24 25 26 -27 28 29 -30 31 32 33 -34 -35 36 0
1 -2 -3 4 5 6 7 8 -9 10 11 12 -13 14 15 -16 -17 18 -19 -20 21 -22 23 -24 25 26 27 -28 29 -30 31 32 33 -34 -35 36 0
-1 2 3 4 -5 -6 -7 -8 -9 10 11 -12 13 14 15 -16 -17 18 -19 -20 21 -22 23 24 -25 26 27 -28 29 30 31 -32 -33 34 35 36 0
-1 2 3 4 -5 -6 -7 -8 -9 10 11 -12 13 14 15 -16 -17 18 -19 -20 21 -22 23 24 -25 -26 27 -28 29 -30 31 32 33 34 -35 -36 0
-1 2 3 4 -5 -6 -7 -8 -9 10 11 -12 13 14 15 -16 -17 18 -19 -20 21 -22 23 24 -25 -26 27 28 -29 30 31 32 33 -34 -35 36 0
1 2 3 4 -5 -6 7 -8 -9 10 11 -12 -13 14 15 -16 -17 18 -19 -20 21 -22 23 24 25 26 27 -28 29 30 31 32 33 -34 -35 36 0
1 2 3 -4 -5 6 7 8 -9 10 11 -12 -13 14 15 -16 -17 18 -19 -20 21 -22 23 24 25 26 27 -28 29 30 31 32 33 -34 -35 36 0
1 2 3 4 -5 -6 7 -8 -9 10 11 -12 -13 14 15 -16 -17 18 -19 -20 21 22 23 24 25 26 -27 -28 29 -30 31 32 -33 34 -35 -36 0
-1 -2 3 4 5 6 -7 8 9 -10 -11 12 13 -14 15 -16 -17 18 -19 -20 21 22 23 24 25 26 -27 -28 29 -30 31 32 -33 34 -35 -36 0
1 2 3 4 -5 -6 7 8 9 -10 11 -12 13 14 15 -16 -17 18 19 20 21 22 23 24 -25 -26 27 28 29 30 -31 -32 33 34 35 36 0
1 2 3 4 -5 6 7 8 9 -10 11 -12 13 14 15 -16 -17 18 19 20 21 22 23 24 -25 -26 27 28 29 30 -31 -32 33 34 35 36 0
1 2 3 4 -5 6 -7 -8 9 -10 11 -12 13 -14 15 -16 -17 18 -19 20 21 22 23 24 -25 26 -27 -28 29 -30 31 -32 -33 34 -35 -36 0
1 2 3 4 -5 -6 -7 -8 9 -10 11 -12 13 -14 15 -16 -17 18 -19 20 21 22 23 24 -25 26 -27 -28 29 -30 31 -32 -33 34 -35 -36 0
-1 -2 3 4 -5 -6 -7 8 -9 10 11 -12 13 14 15 -16 -17 18 19 20 21 22 23 24 25 -26 -27 -28 -29 30 31 -32 33 34 -35 36 0
-1 2 3 4 -5 -6 -7 -8 -9 10 11 -12 13 14 15 -16 -17 18 -19 -20 21 22 23 24 -25 26 -27 -28 -29 30 31 32 33 34 -35 36 0
1 2 3 4 -5 -6 7 -8 -9 10 11 -12 -13 14 15 -16 -17 18 19 -20 21 22 23 24 25 26 -27 -28 -29 30 31 32 33 34 -35 36 0
1 2 -3 -4 5 6 7 -8 9 10 -11 12 13 -14 15 -16 -17 18 -19 -20 21 22 23 24 25 26 -27 -28 29 -30 31 32 -33 34 -35 -36 0
-1 2 -3 -4 5 6 -7 -8 9 10 -11 12 13 14 15 -16 17 -18 19 20 21 22 -23 -24 -25 -26 27 28 29 30 -31 -32 33 34 35 36 0
-1 2 -3 -4 5 6 -7 -8 9 10 -11 12 13 14 15 -16 17 -18 19 20 21 22 -23 24 -25 -26 27 28 29 30 -31 -32 33 34 35 36 0
1 2 -3 -4 5 6 7 8 -9 10 -11 12 13 14 15 -16 17 -18 19 20 21 22 -23 -24 -25 -26 27 28 29 30 -31 -32 33 34 35 36 0
1 2 3 -4 5 6 7 8 -9 10 -11 12 13 14 15 -16 17 -18 19 20 21 22 -23 -24 -25 -26 27 28 29 30 -31 -32 33 34 35 36 0
1 2 3 -4 5 6 7 8 -9 10 -11 12 13 14 15 -16 17 -18 19 20 21 22 -23 24 -25 -26 27 28 29 30 -31 -32 33 34 35 36 0
1 2 -3 -4 5 6 7 8 -9 10 -11 12 13 14 15 -16 17 -18 19 20 21 22 -23 24 -25 -26 27 28 29 30 -31 -32 33 34 35 36 0
1 2 -3 -4 5 6 7 8 -9 10 -11 12 13 14 15 -16 17 -18 19 20 21 22 23 -24 -25 -26 27 28 -29 30 -31 -32 33 34 -35 -36 0
1 2 3 -4 5 6 7 8 -9 10 -11 12 13 14 15 -16 17 -18 19 20 21 22 23 -24 -25 -26 27 28 -29 30 -31 -32 33 34 -35 -36 0
1 2 3 -4 5 6 7 8 -9 10 -11 12 13 -14 15 -16 17 -18 -19 20 -21 22 23 -24 -25 26 -27 28 -29 30 31 -32 -33 34 -35 -36 0
-1 2 -3 -4 5 6 -7 -8 9 10 -11 12 13 14 15 -16 17 -18 -19 -20 -21 22 -23 24 -25 26 27 -28 29 30 31 -32 -33 34 35 36 0
1 2 -3 -4 5 6 7 8 -9 10 11 -12 13 14 15 -16 -17 -18 -19 -20 -21 22 23 24 -25 26 27 -28 29 30 31 32 -33 -34 35 36 0
1 2 -3 -4 5 6 7 8 -9 10 11 12 13 14 15 -16 -17 -18 -19 -20 -21 22 23 -24 -25 26 27 -28 29 30 31 32 33 -34 -35 36 0
1 2 -3 -4 5 6 7 8 -9 10 11 12 13 14 15 -16 -17 -18 -19 -20 -21 22 23 -24 -25 26 27 -28 29 30 31 -32 -33 34 35 36 0
1 2 -3 -4 5 6 7 8 -9 10 11 -12 13 14 15 -16 -17 -18 -19 -20 -21 22 23 24 -25 26 27 -28 29 30 31 -32 -33 34 35 36 0
1 2 3 -4 -5 6 7 8 -9 10 11 -12 13 14 15 -16 -17 -18 -19 -20 -21 22 23 24 -25 26 27 -28 29 30 31 -32 -33 34 35 36 0
1 2 3 -4 -5 6 7 8 -9 10 11 -12 13 14 15 -16 -17 -18 -19 -20 -21 22 23 24 -25 26 27 -28 29 30 31 32 -33 -34 35 36 0
1 2 3 -4 -5 6 7 8 -9 10 11 -12 -13 14 15 -16 -17 -18 -19 -20 -21 22 23 24 25 26 27 -28 29 30 31 32 -33 -34 35 36 0
1 -2 -3 4 5 6 7 8 -9 10 11 -12 -13 14 15 -16 -17 -18 -19 -20 -21 22 23 24 25 26 27 -28 29 30 31 32 -33 -34 35 36 0
1 -2 -3 4 5 6 -7 8 -9 10 11 12 -13 14 15 -16 -17 18 19 -20 -21 22 23 -24 25 26 27 -28 29 -30 31 32 33 -34 -35 36 0
-1 -2 3 4 -5 -6 -7 8 -9 10 11 -12 13 14 15 -16 -17 18 19 -20 -21 22 23 24 -25 26 27 -28 29 -30 -31 -32 33 34 -35 -36 0
-1 -2 3 4 -5 -6 -7 8 -9 10 11 -12 13 14 15 -16 -17 18 19 -20 -21 22 23 24 -25 26 -27 28 29 30 -31 -32 33 34 35 36 0
-1 -2 3 4 -5 -6 -7 8 -9 10 11 -12 13 14 15 -16 -17 18 19 -20 -21 22 23 24 -25 26 -27 28 29 30 31 -32 33 34 35 36 0
1 2 3 -4 -5 6 7 8 -9 10 11 -12 13 -14 15 -16 -17 -18 -19 20 -21 22 23 24 -25 26 -27 28 -29 -30 31 -32 -33 34 -35 -36 0
1 2 3 4 -5 -6 7 8 -9 10 11 -12 13 -14 15 -16 -17 18 19 20 -21 22 23 24 -25 26 -27 28 29 30 -31 -32 33 34 35 36 0
1 2 3 -4 -5 6 7 8 -9 10 11 -12 13 -14 15 -16 -17 18 19 20 -21 22 23 24 -25 26 -27 28 29 30 -31 -32 33 34 35 36 0
1 -2 3 4 -5 -6 -7 8 -9 10 11 -12 13 -14 15 -16 -17 18 19 20 -21 22 23 24 -25 26 -27 28 29 30 -31 -32 33 34 35 36 0
-1 -2 3 4 -5 -6 -7 8 -9 10 11 -12 13 -14 15 -16 -17 18 19 20 -21 22 23 24 -25 26 -27 28 29 30 -31 -32 33 34 35 36 0
1 2 3 4 -5 -6 7 -8 -9 10 11 -12 13 -14 15 -16 -17 18 19 20 -21 22 23 24 -25 26 -27 28 29 30 -31 -32 33 34 35 36 0
1 2 3 4 -5 -6 7 8 -9 10 11 -12 13 -14 15 -16 -17 18 -19 20 -21 22 23 24 -25 26 -27 28 29 30 31 -32 33 34 35 36 0
1 2 3 -4 -5 6 7 8 -9 10 11 -12 13 -14 15 -16 -17 18 -19 20 -21 22 23 24 -25 26 -27 28 29 30 31 -32 33 34 35 36 0
1 2 3 4 -5 -6 7 8 9 10 -11 -12 -13 -14 15 16 17 18 -19 20 -21 22 23 24 25 26 -27 28 29 30 31 32 -33 -34 35 36 0
-1 -2 3 4 -5 -6 -7 8 9 10 -11 -12 13 -14 15 16 17 18 19 20 -21 22 23 24 -25 26 -27 28 29 30 -31 -32 33 34 35 36 0
1 2 3 4 -5 -6 7 8 9 10 -11 -12 13 -14 15 16 17 18 -19 20 -21 22 23 24 -25 26 -27 28 29 30 31 -32 33 34 35 36 0
1 2 3 4 -5 -6 7 8 9 10 -11 -12 13 14 15 16 17 18 19 -20 -21 22 23 24 -25 26 -27 28 29 30 31 -32 33 34 35 36 0
1 2 3 4 -5 -6 7 8 9 10 -11 -12 13 14 15 16 17 18 19 -20 -21 22 23 24 -25 26 -27 28 29 30 -31 -32 33 34 35 36 0
1 2 3 4 -5 -6 7 8 9 10 11 -12 13 14 -15 -16 -17 18 19 20 -21 22 23 24 -25 26 -27 28 29 30 -31 -32 33 34 35 36 0
-1 -2 3 4 -5 -6 -7 8 9 10 11 -12 13 -14 -15 -16 -17 18 19 20 -21 22 23 24 -25 26 27 28 29 30 -31 -32 33 34 35 36 0
-1 -2 3 4 -5 -6 -7 8 -9 10 11 -12 13 14 -15 -16 17 18 19 20 -21 22 23 24 25 26 27 -28 -29 -30 31 32 33 34 35 -36 0
-1 -2 3 4 -5 -6 -7 8 -9 10 11 -12 13 14 -15 -16 17 18 19 20 -21 22 23 24 25 26 27 -28 29 30 31 32 -33 -34 35 36 0
-1 -2 3 4 -5 -6 -7 8 -9 10 11 -12 13 14 -15 -16 17 18 19 20 -21 22 23 24 25 26 27 28 -29 30 31 32 33 -34 -35 36 0
1 2 -3 -4 5 6 7 -8 9 10 -11 12 -13 14 -15 -16 17 -18 -19 20 -21 22 23 -24 25 -26 27 28 -29 30 31 32 -33 -34 35 36 0
-1 -2 3 4 -5 -6 -7 8 -9 10 11 -12 13 14 -15 -16 17 18 19 20 -21 22 23 24 -25 26 -27 28 29 30 -31 -32 33 34 35 36 0
-1 -2 3 4 5 6 -7 8 9 10 11 12 13 -14 -15 -16 17 18 19 20 -21 22 23 -24 -25 26 27 28 -29 -30 -31 -32 33 34 35 36 0
-1 -2 3 4 5 6 -7 8 9 10 11 12 13 -14 -15 -16 17 18 19 20 -21 22 -23 24 -25 26 27 28 -29 30 -31 -32 33 34 -35 -36 0
-1 -2 3 4 5 6 -7 8 9 10 11 12 13 -14 -15 -16 17 -18 19 20 -21 22 -23 -24 -25 26 27 28 29 30 -31 -32 33 34 35 36 0
1 2 -3 -4 5 6 7 8 9 -10 11 12 13 14 -15 16 17 18 19 20 -21 -22 23 24 -25 26 -27 28 29 -30 -31 -32 33 34 -35 -36 0
1 2 3 4 5 -6 7 8 9 -10 -11 -12 13 14 -15 16 17 18 19 20 -21 -22 23 24 -25 26 -27 28 29 -30 -31 -32 33 34 -35 -36 0
1 2 3 -4 -5 6 7 8 9 10 -11 12 13 14 -15 16 17 18 19 20 -21 -22 23 24 -25 26 -27 28 29 -30 -31 -32 33 34 -35 -36 0
-1 -2 3 4 5 6 -7 8 9 10 -11 -12 13 14 -15 16 17 -18 19 -20 -21 -22 23 24 -25 26 27 28 29 30 -31 -32 33 34 35 36 0
-1 -2 3 4 5 6 -7 8 9 10 11 12 13 14 -15 16 17 18 19 -20 -21 -22 -23 24 -25 26 27 28 29 -30 -31 -32 33 34 -35 -36 0
-1 -2 3 4 5 6 -7 8 9 10 11 12 13 14 -15 16 -17 -18 19 -20 -21 -22 23 -24 -25 26 27 28 29 30 -31 -32 33 34 35 36 0
-1 -2 3 4 -5 -6 -7 8 9 10 -11 12 13 14 -15 16 -17 18 19 -20 -21 -22 23 24 -25 26 27 28 29 30 -31 -32 33 34 35 36 0
-1 -2 3 4 5 6 -7 8 -9 10 11 12 13 14 -15 16 17 18 19 20 -21 -22 -23 24 25 26 27 28 29 -30 31 32 33 34 -35 -36 0
-1 -2 3 4 5 6 -7 8 -9 10 11 12 13 14 -15 16 17 18 19 20 -21 -22 23 24 -25 26 -27 28 29 -30 -31 -32 33 34 -35 -36 0
1 2 3 -4 -5 6 7 8 -9 10 -11 12 13 -14 15 16 17 18 19 20 -21 -22 23 24 -25 26 -27 28 29 -30 -31 -32 33 34 -35 -36 0
1 2 3 -4 -5 6 7 8 -9 10 -11 12 13 -14 15 16 17 18 -19 20 -21 -22 23 24 -25 26 -27 28 29 -30 31 -32 33 34 -35 -36 0
1 -2 -3 4 -5 -6 7 8 -9 10 -11 12 13 -14 15 16 17 -18 -19 20 -21 -22 23 -24 -25 26 -27 28 -29 30 31 -32 33 34 35 36 0
1 -2 -3 4 -5 -6 7 8 -9 10 -11 12 13 -14 15 16 17 -18 19 20 -21 -22 23 -24 -25 26 -27 28 -29 30 -31 -32 33 34 35 36 0
1 -2 -3 4 -5 -6 -7 8 -9 10 -11 12 13 -14 15 16 17 -18 19 20 -21 -22 23 -24 -25 26 -27 28 -29 30 -31 -32 33 34 35 36 0
1 -2 3 4 5 6 -7 8 -9 10 11 12 13 -14 15 16 17 18 19 20 -21 -22 -23 24 -25 26 -27 28 29 -30 -31 -32 33 34 -35 -36 0
-1 -2 3 4 5 6 -7 8 -9 10 11 12 13 -14 15 16 17 18 19 20 -21 -22 -23 24 -25 26 -27 28 29 -30 -31 -32 33 34 -35 -36 0
1 -2 -3 4 5 6 -7 8 -9 10 11 12 13 -14 15 16 17 18 19 20 -21 -22 -23 24 -25 26 -27 28 29 -30 -31 -32 33 34 -35 -36 0
1 -2 -3 4 5 6 7 8 -9 10 11 12 13 -14 15 16 17 18 19 20 -21 -22 -23 24 -25 26 -27 28 29 -30 -31 -32 33 34 -35 -36 0
1 -2 -3 4 5 6 7 8 -9 10 11 12 13 -14 15 16 17 18 -19 20 -21 -22 -23 24 -25 26 -27 28 29 -30 31 -32 33 34 -35 -36 0
1 -2 -3 4 -5 -6 7 8 -9 10 -11 -12 13 -14 15 16 17 18 -19 20 -21 -22 -23 -24 -25 26 -27 28 29 -30 31 -32 33 34 35 36 0
1 -2 -3 4 -5 -6 7 8 -9 10 -11 -12 13 -14 15 16 17 18 19 20 -21 -22 -23 -24 -25 26 -27 28 29 -30 -31 -32 33 34 35 36 0
1 -2 -3 4 -5 -6 -7 8 -9 10 -11 -12 13 -14 15 16 17 18 19 20 -21 -22 -23 -24 -25 26 -27 28 29 -30 -31 -32 33 34 35 36 0
1 -2 3 4 5 6 -7 8 -9 10 -11 -12 13 -14 15 16 17 -18 19 20 -21 -22 -23 24 -25 26 -27 28 29 30 -31 -32 33 34 35 36 0
-1 -2 3 4 5 6 -7 8 -9 10 -11 -12 13 -14 15 16 17 -18 19 20 -21 -22 -23 24 -25 26 -27 28 29 30 -31 -32 33 34 35 36 0
1 -2 -3 4 -5 -6 -7 8 -9 10 -11 12 13 -14 15 16 17 -18 19 20 -21 -22 -23 24 -25 26 -27 28 29 30 -31 -32 33 34 35 36 0
1 -2 -3 4 -5 -6 7 8 -9 10 -11 12 13 -14 15 16 17 -18 19 20 -21 -22 -23 24 -25 26 -27 28 29 30 -31 -32 33 34 35 36 0
1 -2 -3 4 -5 -6 7 8 -9 10 -11 12 13 -14 15 16 17 -18 -19 20 -21 -22 -23 24 -25 26 -27 28 29 30 31 -32 33 34 35 36 0
1 -2 -3 4 5 6 -7 8 -9 10 11 12 13 -14 15 16 17 18 19 20 -21 -22 -23 24 25 26 27 28 29 -30 31 32 33 34 -35 -36 0
1 -2 3 4 5 6 -7 8 -9 10 11 12 13 -14 15 16 17 18 19 20 -21 -22 -23 24 25 26 27 28 29 -30 31 32 33 34 -35 -36 0
-1 -2 3 4 5 6 -7 8 -9 10 11 12 13 -14 15 16 17 18 19 20 -21 -22 -23 24 25 26 27 28 29 -30 31 32 33 34 -35 -36 0
1 -2 -3 4 5 6 7 -8 -9 10 11 12 13 14 15 16 17 18 19 -20 -21 -22 -23 24 -25 26 27 28 29 -30 -31 -32 33 34 -35 -36 0
1 -2 -3 4 -5 -6 7 -8 -9 10 -11 12 13 14 15 16 17 -18 19 -20 -21 -22 23 -24 -25 26 27 -28 -29 30 -31 -32 33 34 35 36 0
1 -2 -3 4 -5 -6 7 8 -9 10 -11 12 13 -14 15 16 17 -18 -19 20 -21 -22 23 -24 25 -26 27 28 -29 30 31 32 -33 -34 35 36 0
-1 -2 3 4 5 6 -7 -8 9 10 11 12 13 14 15 16 -17 -18 19 20 21 -22 23 -24 -25 -26 27 28 -29 30 -31 32 -33 -34 35 36 0
-1 -2 3 4 5 6 -7 -8 9 10 11 12 13 14 15 16 -17 -18 19 20 21 -22 23 -24 25 26 -27 28 -29 30 31 32 33 -34 35 36 0
-1 -2 3 4 5 6 -7 -8 9 10 11 12 13 14 15 16 -17 -18 19 20 21 -22 23 -24 25 26 -27 28 -29 30 31 32 -33 -34 35 36 0
-1 -2 3 4 5 6 -7 -8 9 10 11 12 13 14 15 16 -17 -18 19 20 21 -22 23 -24 -25 26 -27 28 29 30 -31 -32 33 34 35 36 0
1 -2 -3 4 5 6 7 8 -9 10 11 12 13 14 -15 16 -17 -18 19 20 21 -22 23 -24 -25 -26 -27 28 29 30 -31 32 33 34 35 36 0
1 -2 -3 4 5 6 -7 8 -9 10 11 12 -13 14 -15 16 -17 18 19 -20 21 -22 23 -24 25 26 -27 28 29 -30 31 32 33 -34 -35 36 0
1 2 3 -4 -5 6 7 8 -9 10 11 -12 13 14 -15 16 -17 18 19 20 21 -22 23 24 -25 -26 -27 28 29 30 -31 32 33 34 35 36 0
1 2 3 4 -5 -6 7 8 9 -10 11 -12 13 14 -15 16 -17 18 19 20 21 -22 23 24 -25 -26 -27 28 29 30 -31 32 33 34 35 36 0
1 2 3 4 -5 6 7 8 9 -10 11 -12 13 14 -15 16 -17 18 19 20 21 -22 23 24 -25 -26 -27 28 29 30 -31 32 33 34 35 36 0
1 2 3 4 -5 6 7 8 9 -10 11 -12 13 14 -15 16 -17 18 19 -20 21 -22 23 24 -25 26 -27 28 29 30 -31 -32 33 34 35 36 0
1 2 3 4 -5 6 7 8 9 -10 11 -12 13 14 -15 16 -17 18 19 -20 21 -22 23 24 -25 26 -27 28 29 30 31 -32 33 34 35 36 0
1 2 3 4 -5 -6 7 8 9 -10 11 -12 13 14 -15 16 -17 18 19 -20 21 -22 23 24 -25 26 -27 28 29 30 31 -32 33 34 35 36 0
1 2 3 4 -5 -6 7 8 9 -10 11 -12 13 14 -15 16 -17 18 19 -20 21 -22 23 24 -25 26 -27 28 29 30 -31 -32 33 34 35 36 0
1 2 3 4 -5 6 7 8 9 -10 11 -12 13 14 -15 16 -17 18 19 -20 21 -22 23 24 25 -26 27 28 29 30 -31 -32 33 34 35 36 0
1 2 3 4 -5 -6 7 8 9 -10 11 -12 13 14 -15 16 -17 18 19 -20 21 -22 23 24 25 -26 27 28 29 30 -31 -32 33 34 35 36 0
-1 -2 3 4 -5 -6 -7 8 9 -10 11 -12 13 -14 -15 16 -17 18 19 20 21 -22 23 24 -25 26 -27 28 29 30 -31 -32 33 34 35 36 0
-1 -2 3 4 -5 6 -7 8 9 -10 11 -12 13 -14 -15 16 -17 18 19 20 21 -22 23 24 -25 26 -27 28 29 30 -31 -32 33 34 35 36 0
-1 -2 3 4 5 -6 -7 8 9 -10 -11 -12 13 -14 -15 16 17 18 19 20 21 -22 23 24 -25 26 -27 28 29 30 -31 -32 33 34 35 36 0
1 2 3 -4 -5 6 7 8 9 -10 11 -12 13 -14 -15 16 17 -18 -19 20 21 -22 -23 24 -25 26 -27 28 29 30 31 -32 -33 34 35 36 0
1 2 3 -4 -5 6 -7 8 9 -10 11 12 -13 -14 -15 16 17 -18 19 20 21 -22 -23 -24 25 26 -27 28 29 30 31 32 -33 -34 35 36 0
1 -2 -3 4 5 6 -7 8 9 -10 11 12 -13 -14 -15 16 17 -18 19 20 21 -22 -23 -24 25 26 -27 28 29 30 31 32 -33 -34 35 36 0
1 -2 3 4 5 6 -7 8 -9 10 11 12 13 -14 -15 16 17 18 19 20 21 -22 -23 24 -25 26 -27 28 29 -30 -31 -32 33 34 -35 -36 0
-1 -2 3 4 5 6 -7 8 -9 10 11 12 13 -14 -15 16 17 18 19 20 21 -22 -23 24 -25 26 -27 28 29 -30 -31 -32 33 34 -35 -36 0
1 2 3 4 -5 -6 7 8 9 10 -11 12 13 -14 -15 16 -17 18 -19 20 21 -22 23 24 -25 26 -27 28 29 30 31 -32 33 34 35 36 0
1 2 3 4 -5 -6 -7 8 9 10 -11 12 -13 -14 -15 16 -17 18 19 20 21 -22 23 24 25 26 -27 28 29 30 31 32 -33 -34 35 36 0
1 2 3 4 -5 -6 7 8 9 10 -11 12 13 14 -15 16 -17 18 19 -20 21 -22 23 24 -25 26 -27 28 29 30 -31 -32 33 34 35 36 0
1 2 3 4 -5 -6 7 8 9 10 -11 12 13 14 -15 16 -17 18 19 -20 21 -22 23 24 -25 26 -27 28 29 30 31 -32 33 34 35 36 0
-1 -2 3 4 -5 -6 -7 8 -9 10 11 -12 13 14 -15 16 -17 18 19 -20 21 -22 23 24 -25 26 -27 28 29 30 31 -32 33 34 35 36 0
-1 -2 3 4 -5 -6 -7 8 -9 10 11 -12 13 14 -15 16 -17 18 19 -20 21 -22 23 24 -25 26 -27 28 29 30 -31 -32 33 34 35 36 0
-1 -2 3 4 -5 -6 -7 8 -9 10 11 -12 13 14 -15 16 -17 18 19 -20 21 -22 23 24 25 -26 27 28 29 30 -31 -32 33 34 35 36 0
-1 -2 3 4 -5 -6 -7 8 -9 10 11 -12 13 14 -15 16 -17 18 19 -20 21 -22 23 24 -25 26 27 -28 29 -30 -31 -32 33 34 -35 -36 0
1 -2 -3 4 5 6 7 8 -9 10 11 12 13 14 -15 16 -17 -18 -19 -20 21 -22 23 -24 -25 26 27 -28 29 30 31 32 -33 -34 35 36 0
1 2 3 -4 -5 6 7 8 -9 10 11 -12 13 14 -15 16 -17 -18 -19 -20 21 -22 23 24 -25 26 27 -28 29 30 31 -32 -33 34 35 36 0
1 2 3 4 -5 -6 7 8 -9 10 11 -12 13 14 -15 -16 -17 18 -19 -20 21 22 23 24 -25 26 27 -28 -29 30 31 -32 -33 34 -35 36 0
1 2 3 -4 -5 6 7 8 -9 10 11 -12 13 14 -15 -16 -17 18 -19 -20 21 22 23 24 -25 26 27 -28 -29 30 31 -32 -33 34 -35 36 0
1 2 3 4 -5 -6 7 8 9 10 11 -12 13 14 -15 -16 -17 18 19 -20 21 22 23 24 -25 26 27 -28 -29 30 31 -32 -33 34 -35 36 0
-1 -2 3 4 -5 -6 -7 8 -9 10 11 -12 13 14 -15 -16 -17 18 19 -20 21 22 23 24 25 -26 27 -28 -29 30 31 32 -33 34 -35 36 0
-1 -2 3 4 -5 -6 -7 8 -9 10 11 -12 13 14 -15 -16 -17 18 19 -20 21 22 23 24 -25 26 27 -28 -29 30 31 -32 -33 34 -35 36 0
1 2 3 4 -5 -6 7 8 9 10 11 -12 13 14 -15 -16 -17 18 19 -20 21 22 23 24 25 -26 27 -28 -29 30 -31 -32 33 -34 -35 36 0
-1 -2 3 4 -5 -6 -7 8 -9 10 11 -12 13 14 -15 -16 -17 18 19 -20 21 22 23 24 25 -26 27 -28 -29 30 -31 -32 33 -34 -35 36 0
1 2 3 -4 -5 6 7 8 -9 10 11 -12 13 14 -15 -16 -17 -18 -19 -20 21 22 23 24 -25 26 27 -28 29 30 31 32 -33 -34 35 36 0
-1 -2 3 4 5 6 -7 8 -9 10 11 -12 13 14 -15 -16 -17 -18 19 -20 21 22 23 24 25 -26 27 -28 29 30 31 32 -33 -34 35 36 0
1 -2 3 4 5 6 -7 8 -9 10 11 -12 -13 14 -15 -16 -17 -18 19 -20 21 22 23 24 25 26 27 -28 29 30 31 32 -33 -34 35 36 0
-1 -2 3 4 5 6 -7 8 -9 10 11 12 13 14 -15 -16 -17 18 19 -20 21 22 23 -24 25 -26 27 -28 29 -30 -31 -32 33 -34 -35 36 0
1 2 3 4 -5 -6 7 8 9 10 11 -12 13 14 -15 -16 -17 18 19 -20 21 22 23 24 -25 26 -27 28 29 30 31 -32 33 34 35 36 0
1 2 3 4 -5 -6 7 8 9 10 11 -12 13 14 -15 -16 -17 18 19 -20 21 22 23 24 -25 26 -27 28 29 30 -31 -32 33 34 35 36 0
-1 -2 3 4 -5 -6 -7 8 -9 10 11 -12 13 14 -15 -16 -17 18 19 -20 21 22 23 24 -25 26 -27 28 29 30 -31 -32 33 34 35 36 0
-1 -2 3 4 -5 -6 -7 8 -9 10 11 -12 13 14 -15 -16 -17 18 19 -20 21 22 23 24 -25 26 -27 28 29 30 31 -32 33 34 35 36 0
-1 -2 3 4 -5 -6 -7 8 -9 10 11 -12 13 14 -15 -16 -17 18 19 -20 21 22 23 24 -25 26 -27 28 29 30 31 -32 -33 34 35 36 0
1 2 3 4 -5 -6 7 8 9 10 11 -12 13 14 -15 -16 -17 18 19 -20 21 22 23 24 -25 26 -27 28 29 30 31 -32 -33 34 35 36 0
-1 -2 3 4 -5 -6 -7 8 -9 10 11 -12 13 14 -15 -16 -17 18 19 -20 21 22 23 24 25 26 -27 28 29 30 31 -32 -33 34 35 36 0
1 -2 3 4 -5 -6 -7 8 -9 10 11 -12 -13 14 -15 -16 -17 18 19 -20 21 22 23 24 25 26 -27 28 29 30 31 -32 -33 34 35 36 0
-1 -2 3 4 5 6 -7 8 -9 10 11 12 13 14 -15 -16 -17 18 19 -20 21 22 23 -24 -25 26 -27 28 -29 30 31 -32 -33 34 -35 -36 0
-1 -2 3 4 5 6 -7 8 -9 10 11 12 13 14 -15 -16 -17 18 19 -20 21 22 23 -24 -25 26 -27 28 -29 -30 31 -32 33 34 35 36 0
-1 -2 3 4 5 6 -7 8 -9 10 11 12 13 14 -15 -16 -17 18 19 -20 21 22 23 -24 -25 26 -27 28 -29 -30 -31 -32 33 34 35 36 0
-1 -2 3 4 5 6 -7 8 -9 10 -11 12 13 14 -15 -16 17 -18 19 -20 21 22 23 -24 -25 26 -27 28 -29 30 31 -32 -33 34 -35 -36 0
-1 -2 3 4 5 6 -7 8 -9 10 -11 12 13 14 -15 -16 17 -18 19 -20 21 22 23 -24 25 26 -27 28 -29 30 31 -32 -33 34 -35 -36 0
-1 -2 3 4 5 6 -7 8 -9 10 11 12 13 14 -15 -16 -17 18 19 -20 21 22 23 -24 25 26 -27 28 -29 30 31 -32 -33 34 -35 -36 0
-1 -2 3 4 5 6 -7 8 -9 10 11 -12 13 14 -15 -16 -17 -18 19 -20 21 22 23 24 -25 26 -27 28 -29 -30 31 -32 -33 34 -35 -36 0
-1 -2 3 4 5 6 -7 8 -9 10 11 -12 13 14 -15 -16 -17 -18 19 -20 21 22 23 24 25 26 -27 28 -29 -30 31 -32 -33 34 -35 -36 0
1 -2 3 4 5 6 -7 8 -9 10 11 -12 -13 14 -15 -16 -17 -18 19 -20 21 22 23 24 25 26 -27 28 -29 -30 31 -32 -33 34 -35 -36 0
1 -2 3 4 -5 -6 -7 8 -9 10 11 -12 -13 14 -15 -16 17 18 19 -20 21 22 23 24 25 26 -27 28 -29 30 31 32 33 -34 -35 36 0
1 -2 3 4 5 6 -7 8 -9 10 -11 12 -13 14 -15 -16 17 -18 19 -20 21 22 23 -24 25 26 -27 28 -29 30 31 -32 -33 34 -35 -36 0
1 -2 3 4 5 6 -7 8 -9 10 11 12 -13 14 -15 -16 -17 18 19 -20 21 22 23 -24 25 26 -27 28 -29 30 31 -32 -33 34 -35 -36 0
-1 -2 3 4 -5 -6 -7 8 -9 10 11 -12 13 14 -15 -16 17 18 19 -20 21 22 23 24 25 26 -27 28 -29 30 31 32 33 -34 -35 36 0
1 2 3 4 -5 -6 7 8 9 -10 11 -12 13 14 -15 16 17 18 19 -20 21 22 23 24 -25 26 27 28 -29 -30 -31 -32 33 34 -35 -36 0
1 2 -3 -4 5 6 7 8 9 -10 11 12 13 14 -15 16 17 18 19 -20 21 22 23 24 -25 26 27 28 -29 -30 -31 -32 33 34 -35 -36 0
1 -2 -3 4 5 6 -7 8 9 -10 11 12 -13 14 -15 16 17 18 19 -20 21 22 23 24 25 26 27 28 -29 -30 31 32 33 34 -35 -36 0
1 2 3 4 -5 -6 7 8 9 -10 11 -12 -13 14 -15 16 17 18 -19 -20 21 22 23 24 25 26 27 28 -29 -30 31 32 33 34 -35 -36 0
1 2 3 4 -5 -6 7 8 9 -10 11 -12 13 14 -15 16 17 18 19 -20 21 22 23 24 -25 26 27 28 29 30 -31 -32 33 34 35 36 0
-1 -2 3 4 5 6 -7 8 -9 10 11 12 13 14 -15 16 17 18 19 -20 21 22 23 24 -25 26 27 28 -29 -30 -31 -32 33 34 -35 -36 0
-1 -2 3 4 5 6 -7 8 -9 10 -11 -12 13 14 -15 16 -17 -18 19 -20 21 22 23 24 -25 26 27 28 29 30 -31 -32 33 34 35 36 0
-1 -2 3 4 -5 -6 -7 8 -9 10 11 -12 13 14 -15 16 -17 18 19 -20 21 22 -23 -24 25 -26 27 -28 29 30 31 32 -33 -34 35 36 0
1 -2 3 4 5 6 -7 8 -9 10 11 12 -13 14 -15 16 17 18 19 -20 21 22 23 24 25 26 27 28 -29 -30 31 32 33 34 -35 -36 0
1 2 -3 -4 5 6 7 8 -9 10 11 12 -13 14 -15 16 17 18 -19 -20 21 22 23 24 25 26 27 28 -29 -30 31 32 33 34 -35 -36 0
1 2 3 4 -5 -6 7 8 9 10 -11 12 13 14 -15 16 -17 18 19 -20 21 -22 23 24 -25 26 27 -28 29 -30 -31 -32 33 34 -35 -36 0
1 2 3 4 -5 6 7 8 9 -10 11 -12 13 14 -15 16 -17 18 19 -20 21 -22 23 24 -25 26 27 -28 29 -30 -31 -32 33 34 -35 -36 0
1 2 3 4 -5 -6 7 8 9 -10 11 -12 13 14 -15 16 -17 18 19 -20 21 -22 23 24 -25 26 27 -28 29 -30 -31 -32 33 34 -35 -36 0
1 -2 -3 4 5 6 -7 8 9 -10 11 12 -13 14 -15 16 -17 18 19 -20 21 -22 23 -24 25 26 27 -28 29 -30 31 32 33 -34 -35 36 0
1 -2 -3 4 5 6 -7 8 9 -10 11 12 -13 14 -15 16 -17 18 19 -20 21 -22 23 -24 25 26 -27 28 29 -30 31 32 33 -34 -35 36 0
1 2 -3 4 5 6 7 -8 9 -10 11 12 -13 14 -15 16 -17 18 -19 20 21 -22 23 -24 25 -26 27 -28 29 -30 -31 -32 33 -34 -35 36 0
1 2 3 4 5 -6 7 8 9 -10 -11 -12 13 14 -15 16 17 18 19 20 21 -22 23 24 -25 -26 -27 28 29 30 -31 32 33 34 35 36 0
1 2 3 4 -5 -6 7 8 9 -10 11 -12 13 14 -15 16 17 18 19 20 21 -22 -23 24 -25 -26 -27 28 29 -30 -31 32 33 34 -35 -36 0
1 -2 3 4 -5 -6 -7 8 -9 10 11 -12 13 -14 -15 16 -17 18 19 20 21 -22 23 24 -25 26 -27 28 29 30 -31 -32 33 34 35 36 0
-1 -2 3 4 -5 -6 -7 8 -9 10 11 -12 13 -14 -15 16 -17 18 19 20 21 -22 23 24 -25 26 -27 28 29 30 -31 -32 33 34 35 36 0
-1 -2 3 4 -5 -6 -7 8 -9 10 11 -12 13 -14 -15 16 -17 18 19 20 21 -22 23 24 25 26 27 -28 29 -30 31 32 33 34 -35 -36 0
1 -2 3 4 -5 -6 -7 8 -9 10 11 -12 13 -14 -15 16 -17 18 19 20 21 -22 23 24 25 26 27 -28 29 -30 31 32 33 34 -35 -36 0
1 -2 -3 4 5 6 -7 8 -9 10 11 12 -13 14 -15 16 -17 -18 19 -20 21 -22 23 -24 25 26 27 -28 29 30 31 32 -33 -34 35 36 0
1 -2 -3 4 5 6 -7 8 -9 10 11 12 -13 14 -15 16 -17 -18 19 -20 21 -22 23 -24 25 26 27 -28 29 30 31 32 33 -34 -35 36 0
1 -2 -3 4 5 6 -7 8 -9 10 11 12 -13 14 -15 16 -17 18 19 -20 21 -22 23 -24 25 26 27 -28 29 -30 31 32 33 -34 -35 36 0
1 -2 -3 4 5 6 7 8 -9 10 11 12 -13 14 -15 16 -17 18 -19 -20 21 -22 23 -24 25 26 27 -28 29 -30 31 32 33 -34 -35 36 0
1 -2 -3 4 5 6 7 8 -9 10 11 12 -13 14 -15 16 -17 -18 -19 -20 21 -22 23 -24 25 26 27 -28 29 30 31 32 33 -34 -35 36 0
1 2 -3 -4 5 6 7 8 -9 10 11 12 -13 14 -15 16 -17 18 -19 -20 21 -22 23 -24 25 26 27 -28 29 -30 31 32 33 -34 -35 36 0
1 2 -3 -4 5 6 7 8 -9 10 11 -12 -13 14 -15 16 -17 -18 -19 -20 21 -22 23 24 25 26 27 -28 29 30 31 32 33 -34 -35 36 0
1 2 3 4 -5 -6 7 8 9 10 -11 12 13 14 -15 16 -17 18 19 -20 21 -22 23 24 25 -26 27 28 29 30 -31 -32 33 34 35 36 0
1 2 3 4 -5 -6 7 8 9 10 -11 12 13 -14 -15 16 -17 18 19 20 -21 22 -23 -24 -25 26 27 28 29 30 -31 -32 33 34 35 36 0
-1 -2 3 4 5 6 -7 8 9 -10 -11 12 13 -14 -15 16 17 -18 19 20 -21 22 -23 -24 25 26 -27 28 29 30 31 -32 -33 34 35 36 0
-1 -2 3 4 5 -6 -7 8 9 -10 -11 -12 13 -14 -15 16 17 18 19 20 -21 22 -23 -24 25 26 -27 28 29 -30 31 32 33 -34 -35 36 0
-1 -2 3 4 5 -6 -7 8 9 -10 -11 -12 13 -14 -15 16 17 18 19 20 -21 22 -23 -24 -25 26 -27 28 -29 -30 -31 -32 33 34 35 36 0
-1 -2 3 4 5 -6 -7 8 9 -10 -11 -12 13 -14 -15 16 17 18 19 20 -21 22 -23 -24 25 -26 27 28 -29 -30 31 -32 -33 34 35 36 0
1 -2 -3 4 5 6 -7 8 9 -10 11 12 13 -14 -15 16 17 -18 19 20 -21 22 -23 -24 25 26 -27 28 29 30 31 -32 -33 34 35 36 0
1 2 3 4 5 -6 7 8 9 -10 -11 -12 13 14 -15 16 17 18 19 20 -21 22 -23 -24 -25 26 -27 28 -29 -30 -31 -32 33 34 35 36 0
1 2 3 -4 -5 6 7 8 9 -10 11 12 13 -14 -15 16 17 -18 -19 20 -21 22 -23 -24 -25 26 -27 28 29 30 31 -32 -33 34 35 36 0
1 2 3 -4 -5 6 7 8 9 -10 11 -12 13 -14 -15 16 17 -18 -19 20 -21 22 -23 24 -25 26 -27 28 -29 -30 31 -32 33 34 35 36 0
-1 -2 3 4 5 6 -7 8 9 -10 11 12 13 -14 -15 16 -17 18 19 20 -21 22 23 -24 -25 26 27 28 -29 -30 -31 -32 33 34 35 36 0
1 -2 -3 4 5 6 -7 8 9 -10 11 12 13 -14 -15 16 -17 18 19 20 -21 22 23 -24 -25 26 27 28 -29 -30 -31 -32 33 34 35 36 0
1 -2 -3 4 5 6 -7 8 9 -10 11 12 -13 -14 15 16 -17 18 19 20 21 22 23 -24 -25 -26 27 28 -29 -30 -31 -32 33 34 35 36 0
1 -2 -3 4 5 6 -7 8 9 -10 11 -12 -13 -14 15 16 -17 -18 19 20 21 22 23 24 25 26 27 28 -29 -30 31 32 33 34 -35 -36 0
1 -2 -3 4 5 6 -7 8 9 -10 11 -12 -13 -14 15 16 -17 -18 19 20 21 22 23 24 -25 -26 27 28 29 30 -31 -32 33 34 35 36 0
1 -2 -3 4 5 6 -7 8 9 -10 11 -12 -13 -14 15 16 -17 -18 19 20 21 22 23 24 -25 -26 27 28 -29 -30 -31 -32 33 34 -35 -36 0
1 2 3 4 -5 6 7 8 9 -10 11 -12 13 14 15 16 -17 -18 19 -20 21 22 23 24 -25 26 -27 28 29 30 31 -32 33 34 35 36 0
1 2 3 4 -5 6 7 8 9 -10 11 -12 13 14 15 16 -17 -18 19 -20 21 22 23 24 -25 26 -27 28 29 30 -31 -32 33 34 35 36 0
1 2 3 4 -5 6 7 8 9 -10 11 -12 13 14 15 16 -17 18 19 -20 21 22 23 24 -25 26 -27 28 29 30 -31 -32 33 34 35 36 0
1 2 3 4 -5 6 7 8 9 -10 11 -12 13 14 15 16 -17 18 19 -20 21 22 23 24 -25 26 -27 28 29 30 31 -32 33 34 35 36 0
1 2 3 4 -5 -6 7 8 9 -10 11 -12 13 14 15 16 -17 18 19 -20 21 22 23 24 -25 26 -27 28 29 30 31 -32 33 34 35 36 0
1 2 3 4 -5 -6 7 8 9 -10 11 -12 13 14 15 16 -17 18 19 -20 21 22 23 24 -25 26 -27 28 29 30 -31 -32 33 34 35 36 0
1 2 3 4 -5 -6 7 8 9 -10 11 -12 13 14 15 16 -17 18 19 -20 21 22 23 24 -25 26 -27 28 29 30 31 -32 -33 34 35 36 0
1 2 3 4 -5 6 7 8 9 -10 11 -12 13 14 15 16 -17 18 19 -20 21 22 23 24 -25 26 -27 28 29 30 31 -32 -33 34 35 36 0
1 2 3 4 -5 6 7 8 9 -10 11 -12 13 14 15 16 -17 -18 19 -20 21 22 23 24 -25 26 -27 28 29 30 31 -32 -33 34 35 36 0
1 2 3 4 -5 6 7 8 9 -10 11 -12 13 14 15 16 -17 -18 -19 -20 21 22 23 24 -25 26 -27 28 29 30 31 -32 -33 34 35 36 0
1 2 3 4 -5 6 7 8 9 -10 11 -12 13 14 15 16 -17 18 -19 -20 21 22 23 24 -25 26 -27 28 29 30 31 -32 -33 34 35 36 0
1 2 3 4 -5 -6 7 8 9 -10 11 -12 13 14 15 16 -17 18 -19 -20 21 22 23 24 -25 26 -27 28 29 30 31 -32 -33 34 35 36 0
1 2 3 4 -5 -6 7 8 9 -10 11 -12 13 14 15 16 -17 18 -19 -20 21 22 23 24 -25 26 -27 28 29 30 31 -32 33 34 35 36 0
1 2 3 4 -5 6 7 8 9 -10 11 -12 13 14 15 16 -17 18 -19 -20 21 22 23 24 -25 26 -27 28 29 30 31 -32 33 34 35 36 0
1 2 3 4 -5 6 7 8 9 -10 11 -12 13 14 15 16 -17 -18 -19 -20 21 22 23 24 -25 26 -27 28 29 30 31 -32 33 34 35 36 0
1 -2 -3 4 -5 6 7 -8 9 -10 -11 12 13 14 15 16 17 18 19 20 21 22 23 24 -25 -26 27 28 -29 -30 -31 -32 33 34 -35 -36 0
1 2 3 4 -5 6 7 8 9 -10 11 -12 13 14 15 -16 17 -18 19 20 21 22 -23 24 -25 -26 27 28 29 30 -31 -32 33 34 35 36 0
1 2 3 4 -5 -6 7 8 9 -10 11 -12 13 14 15 -16 17 18 19 20 21 22 -23 24 -25 -26 27 28 29 -30 -31 -32 33 34 -35 -36 0
1 2 3 4 -5 -6 7 8 9 -10 11 -12 13 14 15 -16 17 18 19 -20 21 -22 -23 24 -25 26 -27 28 29 -30 -31 -32 33 34 -35 -36 0
1 2 3 4 -5 -6 7 8 9 -10 11 -12 13 14 15 -16 17 18 19 -20 21 -22 -23 24 -25 26 -27 28 29 -30 31 -32 33 34 -35 -36 0
1 2 3 4 -5 -6 7 8 9 -10 11 -12 13 14 15 -16 17 18 19 -20 21 -22 23 24 -25 26 -27 28 29 30 31 -32 33 34 35 36 0
1 2 3 4 -5 -6 7 8 9 -10 11 -12 13 14 15 -16 17 18 19 -20 21 -22 23 24 -25 26 -27 28 29 30 -31 -32 33 34 35 36 0
1 2 3 4 -5 -6 7 8 9 -10 11 -12 13 14 15 -16 17 18 -19 -20 21 -22 23 24 -25 26 -27 28 29 30 31 -32 33 34 35 36 0
1 2 3 4 -5 -6 7 8 9 -10 11 -12 13 14 15 -16 17 18 -19 -20 21 -22 -23 24 -25 26 -27 28 29 -30 31 -32 33 34 -35 -36 0
1 2 3 4 -5 -6 7 8 9 -10 11 -12 13 14 15 -16 17 18 -19 -20 21 -22 -23 24 -25 26 -27 28 29 -30 31 32 33 34 -35 -36 0
1 2 3 4 -5 -6 7 8 9 -10 11 -12 13 14 15 -16 17 18 -19 -20 21 -22 -23 24 -25 26 -27 28 29 -30 31 32 33 -34 -35 36 0
1 2 3 4 -5 -6 7 8 9 -10 11 -12 13 14 15 -16 17 18 -19 -20 21 -22 23 24 -25 -26 27 -28 29 -30 31 32 33 34 -35 -36 0
1 -2 3 4 5 6 -7 8 -9 10 11 12 -13 14 15 -16 17 18 19 -20 21 -22 23 24 -25 -26 27 -28 29 -30 31 32 33 34 -35 -36 0
-1 2 3 4 5 6 -7 -8 -9 10 11 12 13 14 15 -16 17 18 -19 -20 21 -22 23 24 -25 -26 27 -28 29 -30 31 32 33 34 -35 -36 0
1 -2 3 4 5 6 -7 8 -9 10 11 12 -13 -14 15 -16 17 18 19 20 21 -22 23 24 25 26 27 -28 29 -30 31 32 33 34 -35 -36 0
1 -2 3 4 5 6 -7 8 -9 10 11 12 13 -14 15 -16 17 18 19 20 21 -22 23 24 25 26 27 -28 29 -30 31 32 33 34 -35 -36 0
-1 -2 3 4 5 6 -7 8 -9 10 11 12 13 -14 15 -16 17 18 19 20 21 -22 23 24 25 26 27 -28 29 -30 31 32 33 34 -35 -36 0
1 2 3 -4 5 6 -7 8 -9 10 -11 12 -13 -14 15 -16 17 -18 19 20 21 -22 23 -24 -25 -26 27 28 -29 30 -31 32 -33 -34 35 36 0
1 2 3 -4 -5 6 7 8 9 -10 11 12 -13 -14 15 -16 17 18 19 -20 21 -22 23 -24 25 -26 27 28 -29 -30 -31 -32 33 34 35 36 0
1 -2 -3 4 5 6 -7 8 9 -10 11 12 -13 -14 15 -16 17 18 19 -20 21 -22 23 -24 25 -26 27 28 -29 -30 -31 -32 33 34 35 36 0
1 2 3 4 -5 -6 -7 -8 9 -10 11 -12 13 -14 15 -16 17 18 19 -20 21 -22 23 24 -25 -26 27 -28 29 -30 31 32 33 34 -35 -36 0
1 2 3 4 -5 -6 -7 -8 9 -10 11 -12 -13 -14 15 -16 17 18 19 20 21 -22 23 24 25 26 27 -28 29 -30 31 32 33 34 -35 -36 0
1 2 3 4 -5 -6 -7 -8 9 -10 11 -12 13 -14 15 -16 17 18 -19 20 21 -22 23 24 -25 26 -27 28 29 30 31 -32 33 34 35 36 0
1 2 3 4 -5 -6 -7 -8 9 -10 11 -12 -13 -14 15 -16 17 18 19 20 21 -22 23 24 -25 -26 -27 28 29 30 -31 32 33 34 35 36 0
1 2 3 4 -5 6 -7 -8 9 -10 11 -12 -13 -14 15 -16 -17 18 19 20 21 22 23 24 -25 -26 27 -28 -29 30 -31 -32 33 -34 -35 36 0
1 2 3 4 -5 -6 -7 -8 9 -10 11 -12 -13 -14 15 -16 -17 18 19 20 21 22 23 24 -25 -26 27 -28 -29 30 -31 -32 33 -34 -35 36 0
1 -2 -3 4 5 6 -7 8 9 -10 11 12 -13 -14 15 16 -17 18 19 20 21 22 23 -24 25 26 27 -28 29 -30 31 32 33 -34 -35 36 0
1 2 -3 -4 5 6 -7 8 9 -10 11 12 -13 -14 15 16 -17 -18 19 20 21 22 23 -24 25 26 27 -28 29 30 31 32 33 -34 -35 36 0
1 2 3 4 -5 6 7 8 9 -10 11 -12 13 14 15 16 -17 18 19 20 21 22 23 24 -25 -26 27 -28 29 30 -31 32 -33 -34 35 36 0
1 2 3 4 -5 -6 7 8 9 -10 11 -12 13 14 15 16 -17 18 19 20 21 22 23 24 -25 -26 27 -28 29 30 -31 32 -33 -34 35 36 0
1 2 3 -4 -5 6 7 8 9 -10 11 -12 13 14 15 16 -17 18 19 20 21 22 23 24 -25 -26 27 -28 29 30 -31 32 -33 -34 35 36 0
-1 -2 3 -4 -5 6 -7 -8 9 -10 -11 12 13 14 15 16 17 18 19 20 21 22 23 24 25 26 -27 -28 29 -30 31 32 -33 34 -35 -36 0
-1 2 -3 -4 5 6 -7 -8 9 -10 11 12 13 14 15 16 17 18 19 20 21 22 23 24 25 26 -27 -28 29 -30 31 32 -33 34 -35 -36 0
-1 -2 3 -4 -5 6 -7 -8 9 -10 11 12 13 14 15 16 -17 18 19 20 21 22 23 -24 25 26 -27 -28 -29 30 31 32 -33 34 35 36 0
-1 2 -3 -4 5 6 -7 -8 9 -10 11 12 13 14 15 16 -17 -18 19 20 21 22 23 -24 25 26 -27 -28 -29 30 31 32 -33 34 35 36 0
-1 -2 3 -4 -5 6 -7 -8 9 -10 11 -12 13 14 15 16 -17 -18 19 20 21 22 23 24 25 26 -27 -28 -29 -30 31 32 -33 34 35 -36 0
-1 -2 3 4 5 6 -7 -8 9 10 -11 -12 13 14 15 16 -17 -18 19 20 21 22 23 24 25 26 -27 -28 -29 -30 31 32 -33 34 35 -36 0
-1 -2 3 4 -5 -6 -7 -8 9 10 -11 -12 13 14 15 16 17 18 19 20 21 22 23 24 25 -26 27 -28 -29 30 31 -32 -33 34 -35 36 0
-1 -2 3 4 5 6 -7 -8 9 10 -11 -12 13 14 15 16 17 -18 -19 -20 21 22 -23 24 -25 26 27 -28 29 30 31 -32 -33 34 35 36 0
-1 -2 3 4 5 6 7 -8 9 10 11 12 -13 14 15 16 17 18 -19 -20 21 22 -23 24 25 26 27 -28 29 -30 31 32 33 34 -35 36 0
-1 -2 3 4 5 6 7 -8 9 10 11 12 -13 14 15 16 17 18 -19 -20 21 22 -23 24 25 26 27 -28 29 -30 31 32 33 34 -35 -36 0
-1 -2 3 4 5 6 7 -8 9 10 11 12 -13 14 15 16 17 18 -19 -20 21 22 -23 -24 25 26 27 -28 29 -30 31 32 33 34 -35 36 0
-1 -2 3 4 -5 -6 7 -8 9 10 -11 -12 -13 14 15 16 17 18 -19 -20 21 22 -23 -24 25 26 27 -28 29 -30 31 32 33 34 -35 36 0
-1 -2 3 4 -5 -6 -7 -8 9 10 -11 -12 13 14 15 16 17 18 -19 -20 21 22 -23 -24 -25 26 27 -28 29 -30 31 -32 -33 34 35 36 0
-1 -2 3 4 5 6 -7 -8 9 10 11 12 13 14 15 16 17 18 -19 -20 21 22 -23 -24 -25 26 27 -28 29 -30 31 -32 -33 34 35 36 0
-1 -2 3 4 -5 -6 -7 -8 9 10 -11 12 13 14 15 16 17 -18 -19 -20 21 22 -23 -24 -25 26 27 -28 29 30 31 32 -33 -34 35 36 0
-1 -2 3 4 5 6 -7 -8 9 10 11 12 13 14 15 16 -17 -18 -19 -20 21 22 -23 24 -25 -26 27 28 29 -30 31 32 33 34 -35 -36 0
-1 -2 3 4 5 6 7 -8 9 10 11 12 -13 14 15 16 -17 -18 -19 -20 21 22 -23 24 25 26 27 28 29 -30 31 32 33 34 -35 -36 0
1 2 3 -4 5 6 7 -8 -9 -10 11 12 -13 14 15 16 -17 -18 -19 -20 21 22 -23 24 25 26 27 28 29 -30 31 32 33 34 -35 -36 0
-1 2 3 -4 5 6 -7 -8 -9 -10 11 12 13 14 15 16 -17 -18 -19 -20 21 22 -23 24 -25 -26 27 28 29 -30 31 32 33 34 -35 -36 0
-1 2 3 -4 5 6 -7 -8 -9 -10 11 12 13 14 15 16 -17 -18 -19 -20 21 22 -23 24 -25 26 -27 28 -29 30 31 -32 -33 34 -35 -36 0
-1 2 3 -4 5 6 -7 -8 -9 -10 11 12 13 14 15 16 -17 -18 -19 -20 21 22 -23 24 -25 26 -27 28 -29 30 31 32 33 -34 35 36 0
1 2 3 -4 5 6 7 -8 -9 -10 11 12 -13 14 15 16 -17 -18 -19 -20 21 22 -23 24 25 26 -27 28 -29 30 31 32 -33 -34 35 36 0
1 2 3 -4 5 6 7 -8 -9 -10 11 12 -13 14 15 16 -17 -18 19 -20 21 22 -23 24 25 26 -27 28 -29 30 31 32 33 -34 35 36 0
1 2 3 -4 5 6 7 -8 -9 -10 11 12 -13 14 15 16 -17 -18 19 -20 21 22 -23 24 25 26 -27 28 -29 30 31 -32 -33 34 -35 -36 0
1 2 3 -4 5 6 7 -8 -9 -10 11 12 -13 14 15 16 -17 -18 19 -20 21 22 -23 24 -25 -26 27 28 29 -30 31 32 33 34 -35 -36 0
1 -2 -3 4 -5 -6 -7 8 -9 -10 11 -12 -13 14 15 16 17 18 19 -20 21 -22 -23 24 -25 -26 27 -28 29 -30 31 32 33 34 -35 36 0
1 -2 -3 4 -5 -6 -7 8 -9 -10 11 -12 -13 14 15 16 17 18 19 -20 21 -22 -23 24 -25 -26 27 -28 29 -30 31 32 33 34 -35 -36 0
-1 -2 3 -4 -5 6 -7 -8 9 -10 -11 12 13 14 15 16 17 18 -19 -20 21 -22 -23 24 -25 -26 27 -28 29 -30 31 32 33 34 -35 36 0
-1 -2 3 -4 -5 6 -7 -8 9 -10 -11 12 13 14 15 16 17 18 -19 -20 21 -22 -23 24 -25 -26 27 -28 29 -30 31 32 33 34 -35 -36 0
-1 -2 3 4 5 6 -7 -8 9 10 11 12 13 14 15 16 17 18 19 20 21 -22 -23 24 25 26 27 -28 29 -30 31 32 33 34 -35 -36 0
-1 -2 3 4 5 6 -7 -8 9 10 11 12 13 14 15 16 17 18 19 20 21 -22 -23 24 25 26 27 -28 29 -30 31 32 33 34 -35 36 0
-1 -2 3 4 -5 -6 -7 -8 9 10 -11 -12 13 14 15 16 17 18 19 20 21 22 23 24 25 26 27 -28 -29 30 31 32 33 -34 -35 36 0
-1 -2 3 4 -5 -6 -7 -8 9 10 -11 -12 13 14 15 16 17 18 19 20 21 22 23 24 -25 -26 27 -28 -29 30 -31 -32 33 -34 -35 36 0
1 2 3 4 -5 -6 7 8 9 10 -11 -12 13 14 15 16 17 18 19 20 21 22 23 24 -25 -26 27 -28 -29 30 -31 -32 33 -34 -35 36 0
1 2 3 4 -5 -6 7 8 9 10 -11 -12 13 14 15 16 17 18 19 20 21 22 23 24 -25 -26 27 -28 29 30 -31 32 -33 -34 35 36 0
-1 -2 3 4 -5 -6 -7 -8 9 10 -11 -12 13 14 15 16 17 18 19 20 21 22 23 24 -25 -26 27 -28 29 30 -31 32 -33 -34 35 36 0
1 2 3 4 -5 -6 7 8 9 10 -11 -12 -13 -14 15 16 17 18 19 -20 21 22 23 24 25 -26 27 -28 -29 30 -31 -32 33 -34 -35 36 0
1 2 3 4 -5 -6 7 8 9 10 -11 -12 -13 -14 15 16 17 18 19 -20 21 22 23 24 25 -26 27 -28 29 30 31 32 -33 -34 35 36 0
1 2 3 4 -5 -6 -7 -8 9 10 -11 -12 -13 -14 15 16 17 18 19 20 21 22 23 24 25 26 27 -28 -29 30 31 32 33 -34 -35 36 0
1 -2 -3 4 -5 -6 -7 8 -9 10 -11 -12 13 -14 15 16 17 18 19 20 21 22 23 24 25 26 27 -28 -29 30 31 32 33 -34 -35 36 0
1 -2 -3 4 -5 -6 -7 8 -9 10 -11 -12 -13 -14 15 16 17 18 19 20 21 22 23 24 25 26 27 -28 -29 30 31 32 33 -34 -35 36 0
1 2 -3 4 -5 -6 7 8 -9 -10 11 -12 13 14 15 16 17 18 19 20 21 22 23 24 -25 -26 27 -28 -29 30 -31 -32 33 -34 -35 36 0
1 2 -3 4 -5 -6 7 8 -9 -10 11 -12 13 14 15 16 17 18 19 20 21 22 23 24 -25 -26 27 -28 29 30 -31 32 -33 -34 35 36 0
1 2 -3 4 -5 -6 7 8 -9 -10 11 -12 13 14 15 16 17 18 19 20 21 22 23 24 -25 -26 27 28 29 30 -31 -32 33 34 35 36 0
1 2 -3 4 -5 -6 7 8 -9 -10 11 -12 13 14 15 16 17 18 19 20 21 22 23 24 -25 -26 27 28 -29 -30 -31 -32 33 34 -35 -36 0
1 2 -3 -4 5 6 7 8 -9 -10 11 12 13 14 15 16 17 18 19 20 21 22 23 24 -25 -26 27 28 -29 -30 -31 -32 33 34 -35 -36 0
-1 -2 3 -4 5 6 -7 8 -9 -10 11 12 13 14 15 16 17 18 19 20 21 22 23 24 -25 -26 27 28 -29 -30 -31 -32 33 34 -35 -36 0
-1 -2 3 -4 5 6 -7 8 -9 -10 11 12 13 14 15 16 17 18 19 20 21 22 23 24 25 26 27 28 -29 -30 31 32 33 34 -35 -36 0
1 2 -3 4 -5 -6 7 8 -9 -10 11 -12 13 14 15 16 17 18 19 20 21 22 23 24 -25 26 -27 -28 29 30 -31 -32 33 -34 35 36 0
-1 -2 3 -4 5 6 -7 8 -9 -10 11 12 13 14 15 16 17 18 19 20 21 22 23 24 25 26 -27 -28 29 -30 31 32 -33 34 -35 -36 0
-1 -2 3 -4 5 6 -7 8 -9 -10 11 12 13 14 15 16 17 18 19 20 21 22 23 24 25 26 -27 28 -29 -30 31 32 -33 -34 35 -36 0
1 2 -3 -4 5 -6 7 8 -9 10 -11 -12 13 14 15 16 17 18 19 20 21 22 23 24 -25 26 -27 -28 29 30 -31 -32 33 -34 35 36 0
-1 -2 3 -4 5 6 -7 8 -9 -10 11 12 13 14 15 16 -17 -18 19 20 21 22 -23 24 25 26 -27 28 -29 30 31 32 -33 -34 35 36 0
1 2 -3 -4 5 6 7 8 -9 10 -11 12 13 14 15 16 -17 18 19 20 21 22 -23 -24 -25 26 -27 -28 29 30 -31 -32 33 -34 35 36 0
-1 -2 3 -4 5 6 -7 8 -9 -10 11 12 13 14 15 16 -17 -18 19 20 21 22 -23 24 25 26 27 28 29 -30 31 32 33 34 -35 -36 0
-1 -2 3 -4 5 6 -7 8 -9 -10 11 12 13 14 15 16 -17 -18 19 20 21 22 -23 24 -25 -26 27 28 29 -30 -31 -32 33 34 -35 -36 0
1 2 -3 4 5 -6 7 8 -9 -10 -11 -12 13 14 15 16 17 18 19 20 21 22 -23 -24 -25 -26 27 -28 29 -30 -31 -32 33 -34 -35 36 0
1 2 -3 4 5 6 7 8 -9 -10 -11 12 13 14 15 16 17 -18 19 20 21 22 -23 24 -25 -26 27 -28 29 30 -31 -32 33 -34 -35 36 0
1 2 -3 4 5 6 7 8 -9 -10 -11 12 13 14 15 16 17 -18 19 20 21 22 -23 -24 -25 -26 27 28 29 30 -31 -32 33 34 35 36 0
1 2 -3 4 5 6 7 8 -9 -10 -11 12 13 14 15 16 17 -18 19 20 21 22 -23 24 -25 -26 27 28 -29 -30 -31 -32 33 34 35 36 0
1 2 -3 4 5 -6 7 8 -9 -10 -11 -12 13 14 15 16 17 18 19 20 21 22 -23 -24 -25 -26 27 28 -29 -30 -31 -32 33 34 35 36 0
1 2 -3 4 5 6 7 8 -9 -10 -11 12 13 14 15 16 17 -18 19 20 21 22 -23 -24 -25 -26 27 -28 29 30 -31 32 -33 -34 35 36 0
-1 -2 3 -4 5 6 -7 8 -9 -10 11 12 13 14 15 16 -17 -18 19 20 21 22 -23 24 25 -26 -27 28 -29 30 31 -32 -33 34 -35 -36 0
-1 -2 3 -4 5 6 -7 8 -9 -10 11 12 13 14 15 16 -17 -18 19 20 21 22 -23 24 25 -26 -27 28 -29 30 31 -32 33 -34 35 36 0
-1 -2 3 4 5 6 -7 -8 9 10 11 12 13 14 15 16 -17 -18 19 20 21 22 -23 24 25 -26 -27 28 -29 30 31 -32 33 -34 35 36 0
-1 -2 3 4 5 6 -7 -8 9 10 11 12 13 14 15 16 -17 -18 19 20 21 22 -23 24 25 -26 -27 28 -29 30 31 -32 -33 34 -35 -36 0
-1 -2 3 4 5 6 -7 -8 9 10 11 12 13 14 15 16 -17 -18 19 20 21 22 -23 24 25 26 -27 28 -29 30 31 32 -33 -34 35 36 0
1 2 3 4 -5 -6 7 8 9 10 -11 12 13 14 15 16 17 -18 19 -20 21 22 -23 -24 -25 26 -27 28 29 30 31 -32 33 34 35 36 0
1 2 3 4 -5 -6 7 8 9 10 -11 12 13 14 15 16 17 -18 19 -20 21 22 -23 -24 -25 26 -27 28 29 30 -31 -32 33 34 35 36 0
1 2 3 -4 -5 6 7 8 9 -10 11 12 13 14 15 16 17 -18 19 -20 21 22 -23 -24 -25 26 -27 28 29 30 -31 -32 33 34 35 36 0
1 2 3 -4 -5 6 7 8 9 -10 11 12 13 14 15 16 17 -18 19 -20 21 22 -23 -24 -25 26 -27 28 29 30 31 -32 33 34 35 36 0
1 2 3 -4 -5 6 7 8 9 -10 11 12 13 14 15 16 17 -18 -19 -20 21 22 -23 -24 -25 26 -27 28 29 30 31 -32 33 34 35 36 0
1 2 3 4 -5 -6 7 8 9 10 -11 12 13 14 15 16 17 -18 -19 -20 21 22 -23 -24 -25 26 -27 28 29 30 31 -32 33 34 35 36 0
1 2 3 4 -5 -6 7 8 9 10 -11 -12 13 14 15 16 17 18 -19 -20 21 22 -23 -24 -25 26 -27 28 29 -30 31 32 33 -34 -35 36 0
-1 -2 3 4 5 6 -7 -8 9 10 11 12 13 14 15 16 17 18 -19 -20 21 22 -23 -24 -25 26 -27 28 29 -30 31 32 33 -34 -35 36 0
-1 -2 3 4 -5 -6 -7 -8 9 10 -11 -12 13 14 15 16 17 18 -19 -20 21 22 -23 -24 -25 26 -27 28 29 -30 31 32 33 -34 -35 36 0
-1 -2 3 4 -5 -6 -7 -8 9 10 -11 12 13 14 15 16 17 -18 -19 -20 21 22 -23 -24 -25 26 -27 28 29 30 31 -32 33 34 35 36 0
-1 -2 3 4 5 6 -7 -8 9 10 11 12 13 14 15 16 -17 -18 -19 -20 21 22 -23 24 -25 26 -27 28 -29 30 31 32 33 -34 35 36 0
1 2 3 4 -5 -6 -7 -8 9 -10 11 -12 13 -14 15 -16 17 18 19 -20 21 22 -23 24 25 26 -27 28 -29 30 31 32 33 -34 35 36 0
-1 -2 3 4 -5 -6 -7 8 9 -10 11 -12 13 -14 15 -16 17 18 -19 -20 21 22 -23 24 25 26 -27 28 -29 30 31 32 -33 -34 35 36 0
1 2 3 4 -5 -6 -7 -8 9 -10 11 -12 13 -14 15 -16 17 18 19 -20 21 22 -23 24 25 26 -27 28 -29 30 31 -32 -33 34 -35 -36 0
1 -2 -3 4 5 6 -7 8 9 -10 11 12 -13 14 -15 -16 17 18 19 -20 21 22 -23 -24 25 26 -27 28 29 -30 31 32 33 -34 -35 36 0
-1 -2 3 4 5 6 -7 8 9 -10 -11 12 13 -14 -15 -16 17 -18 19 20 21 22 23 -24 25 -26 -27 28 -29 30 31 -32 -33 34 -35 -36 0
1 2 -3 -4 5 6 7 -8 9 10 -11 12 -13 14 -15 -16 17 -18 19 -20 21 22 23 -24 25 26 -27 28 -29 30 31 -32 -33 34 -35 -36 0
-1 -2 3 4 5 6 -7 8 -9 10 -11 -12 13 14 -15 -16 17 -18 19 -20 21 22 23 24 25 26 -27 -28 -29 30 31 32 33 34 -35 36 0
1 -2 3 4 5 6 -7 8 -9 10 -11 -12 -13 14 -15 -16 17 -18 19 -20 21 22 23 24 25 26 -27 -28 -29 30 31 32 33 34 -35 36 0
1 2 3 4 -5 -6 7 8 -9 10 11 -12 13 14 -15 -16 17 18 19 20 21 22 23 24 -25 -26 -27 -28 29 30 -31 32 33 -34 35 36 0
1 2 3 4 -5 -6 7 -8 -9 10 11 -12 -13 14 -15 -16 17 18 -19 20 21 22 23 24 25 -26 -27 -28 29 30 31 32 33 -34 35 36 0
1 2 3 -4 -5 6 7 8 -9 10 11 -12 13 14 -15 -16 -17 -18 19 20 21 22 23 24 -25 -26 -27 -28 29 30 -31 32 33 -34 35 36 0
1 2 3 4 -5 -6 7 -8 -9 10 11 -12 -13 14 -15 -16 -17 18 -19 20 21 22 23 24 25 -26 27 -28 -29 30 -31 -32 33 -34 -35 36 0
1 -2 3 4 -5 -6 -7 8 -9 10 11 -12 -13 14 -15 -16 -17 18 19 -20 21 22 23 24 25 26 -27 -28 -29 30 31 32 33 34 -35 36 0
-1 -2 3 4 -5 -6 -7 8 -9 10 11 -12 13 14 -15 -16 -17 18 19 -20 21 22 23 24 25 26 -27 -28 -29 30 31 32 33 34 -35 36 0
1 2 3 4 -5 -6 7 8 9 10 11 -12 13 14 -15 -16 -17 18 19 -20 21 -22 23 24 25 -26 27 28 29 -30 -31 -32 33 34 -35 -36 0
1 2 3 4 -5 -6 7 8 9 10 11 -12 -13 14 -15 -16 -17 18 -19 -20 21 -22 23 24 25 26 27 28 29 -30 31 32 33 34 -35 -36 0
-1 -2 3 4 5 6 -7 8 9 10 11 12 13 -14 -15 -16 17 18 19 20 21 -22 23 24 25 26 27 -28 29 -30 31 32 33 34 -35 -36 0
1 2 -3 -4 5 6 7 -8 9 10 -11 12 -13 14 -15 -16 17 -18 -19 20 21 -22 23 -24 25 -26 27 28 -29 30 31 32 -33 -34 35 36 0
-1 -2 3 4 -5 -6 -7 8 9 -10 11 -12 13 14 -15 -16 17 18 19 20 21 -22 23 24 25 26 27 -28 29 -30 31 32 33 34 -35 -36 0
-1 -2 3 4 -5 -6 -7 8 9 -10 11 -12 13 14 -15 -16 17 18 19 20 21 -22 23 24 25 -26 27 28 29 30 31 -32 -33 34 35 36 0
-1 -2 3 4 -5 -6 -7 8 9 -10 11 -12 13 14 -15 -16 17 18 19 20 21 -22 23 24 -25 -26 -27 28 29 30 -31 32 33 34 35 36 0
-1 -2 3 4 -5 -6 -7 8 9 -10 11 -12 13 14 -15 -16 17 18 19 20 21 -22 23 24 25 26 -27 28 29 30 31 32 -33 -34 35 36 0
1 2 3 4 -5 -6 7 8 9 10 11 -12 13 14 -15 -16 -17 18 -19 20 21 -22 23 24 -25 -26 27 28 29 -30 31 32 33 34 -35 -36 0
-1 -2 3 4 -5 -6 -7 8 9 10 11 -12 13 -14 -15 -16 -17 18 19 20 21 -22 23 24 25 26 27 28 29 -30 31 32 33 34 -35 -36 0
-1 -2 3 4 -5 -6 -7 8 9 10 11 -12 13 -14 -15 -16 -17 18 19 20 21 22 23 24 25 -26 -27 28 29 30 31 -32 -33 34 35 36 0
1 2 -3 -4 5 6 7 8 9 -10 11 12 13 14 15 -16 17 -18 19 20 21 22 -23 -24 -25 -26 27 28 29 30 -31 -32 33 34 35 36 0
1 2 3 4 -5 -6 -7 -8 9 -10 11 -12 13 -14 15 -16 17 18 19 -20 21 22 -23 24 -25 -26 27 28 29 -30 31 32 33 34 -35 -36 0
1 2 3 4 -5 -6 -7 -8 9 -10 11 -12 -13 -14 15 -16 17 18 19 20 21 22 -23 24 25 26 27 28 29 -30 31 32 33 34 -35 -36 0
-1 -2 3 4 -5 -6 -7 8 9 -10 11 -12 13 -14 15 -16 17 18 19 20 -21 22 -23 24 -25 26 -27 28 29 -30 -31 -32 33 34 -35 -36 0
1 2 3 -4 -5 6 7 8 9 -10 11 -12 13 -14 15 -16 17 -18 -19 20 -21 22 -23 24 -25 26 -27 28 29 30 31 -32 -33 34 35 36 0
1 2 3 -4 -5 6 7 8 9 -10 11 -12 -13 -14 15 -16 17 -18 -19 20 -21 22 -23 24 25 26 -27 28 29 30 31 -32 -33 34 35 36 0
1 2 3 -4 -5 6 7 8 9 -10 11 12 -13 -14 15 -16 17 -18 -19 20 -21 22 -23 -24 25 26 -27 28 29 30 31 -32 -33 34 35 36 0
1 2 3 -4 -5 6 7 8 9 -10 11 12 13 -14 15 -16 17 -18 -19 20 -21 22 -23 -24 -25 26 -27 28 29 30 31 -32 -33 34 35 36 0
1 2 3 -4 -5 6 7 8 9 -10 11 12 -13 -14 15 -16 17 18 -19 20 -21 22 -23 -24 25 26 -27 28 29 -30 31 32 -33 -34 35 36 0
1 2 3 -4 -5 6 7 8 9 -10 11 -12 -13 -14 15 -16 17 -18 -19 20 -21 22 -23 24 25 26 -27 28 29 30 31 32 -33 -34 35 36 0
1 -2 -3 4 5 6 -7 8 9 -10 11 12 -13 -14 15 -16 17 18 19 20 -21 22 -23 -24 25 26 -27 28 29 -30 31 32 33 -34 -35 36 0
-1 -2 3 4 5 6 7 -8 9 10 11 12 13 -14 15 -16 17 18 19 20 -21 22 -23 24 -25 26 -27 28 29 -30 -31 -32 33 34 -35 -36 0
1 2 -3 -4 5 6 7 8 9 -10 11 12 13 -14 15 -16 17 -18 -19 20 -21 22 -23 -24 -25 26 -27 28 29 30 31 -32 -33 34 35 36 0
1 2 -3 -4 5 6 -7 8 9 -10 11 12 -13 -14 15 -16 17 -18 19 20 -21 22 -23 -24 25 26 -27 28 29 30 31 -32 -33 34 35 36 0
-1 -2 3 4 5 6 7 -8 9 10 11 12 13 -14 15 -16 17 18 19 20 -21 22 -23 24 25 26 27 28 -29 30 31 32 33 34 -35 -36 0
-1 -2 3 4 5 6 -7 8 -9 10 11 12 13 -14 15 -16 17 18 19 20 -21 22 -23 24 -25 26 -27 28 29 -30 -31 -32 33 34 -35 -36 0
1 -2 3 4 5 6 -7 8 -9 10 11 12 13 -14 15 -16 17 18 19 20 -21 22 -23 24 -25 26 -27 28 29 -30 -31 -32 33 34 -35 -36 0
1 2 3 4 -5 6 7 8 -9 -10 -11 12 13 -14 15 16 17 18 19 20 -21 -22 -23 24 -25 26 -27 28 29 -30 -31 -32 33 34 -35 -36 0
1 2 3 4 -5 6 7 8 -9 -10 -11 12 13 -14 15 16 17 18 -19 20 -21 -22 -23 24 -25 26 -27 28 29 -30 31 -32 33 34 -35 -36 0
1 2 3 4 -5 6 7 8 -9 -10 -11 12 13 -14 15 16 17 18 19 20 -21 -22 23 -24 -25 26 -27 28 -29 -30 -31 -32 33 34 35 36 0
1 2 3 4 -5 6 7 8 -9 -10 -11 12 13 -14 15 16 17 18 -19 20 -21 -22 23 -24 -25 26 -27 28 -29 -30 31 -32 33 34 35 36 0
1 2 3 4 -5 6 7 8 -9 -10 -11 12 13 -14 15 16 17 18 -19 20 -21 22 23 24 25 -26 27 28 -29 -30 31 32 -33 -34 35 -36 0
1 2 3 -4 -5 6 7 8 -9 10 11 -12 13 -14 15 -16 -17 -18 -19 20 -21 22 23 24 25 -26 27 28 -29 -30 31 32 -33 -34 35 -36 0
1 -2 3 4 5 6 -7 8 -9 10 11 12 13 -14 15 -16 17 18 19 20 -21 22 -23 24 25 26 27 28 -29 30 31 32 33 34 -35 -36 0
-1 -2 3 4 5 6 -7 8 -9 10 11 12 13 -14 15 -16 17 18 19 20 -21 22 -23 24 25 26 27 28 -29 30 31 32 33 34 -35 -36 0
-1 -2 3 -4 5 6 -7 8 -9 -10 11 12 13 14 15 16 -17 -18 19 -20 -21 22 -23 24 25 -26 27 28 -29 30 31 32 -33 -34 35 36 0
-1 -2 3 -4 5 6 -7 8 -9 -10 11 12 13 14 15 16 -17 -18 19 -20 -21 22 23 -24 -25 26 27 -28 -29 30 -31 -32 33 34 35 36 0
1 2 3 -4 -5 6 7 8 9 -10 11 -12 13 14 15 16 -17 -18 -19 -20 21 22 23 24 -25 26 -27 28 29 30 31 -32 33 34 35 36 0
1 2 3 -4 -5 6 7 8 9 -10 11 -12 13 14 15 16 -17 -18 19 -20 21 22 23 24 -25 26 -27 28 29 30 31 -32 33 34 35 36 0
1 2 3 -4 -5 6 7 8 9 -10 11 -12 13 14 15 16 -17 -18 19 -20 21 22 23 24 -25 26 -27 28 29 30 -31 -32 33 34 35 36 0
1 2 3 -4 -5 6 7 8 9 -10 11 -12 13 14 15 16 -17 18 19 -20 21 22 23 24 -25 26 -27 28 29 30 -31 -32 33 34 35 36 0
1 2 3 -4 -5 6 7 8 9 -10 11 -12 13 14 15 16 -17 18 19 -20 21 22 23 24 -25 26 -27 28 29 30 31 -32 33 34 35 36 0
1 2 3 -4 -5 6 7 8 9 -10 11 -12 13 14 15 16 -17 18 -19 -20 21 22 23 24 -25 26 -27 28 29 30 31 -32 33 34 35 36 0
-1 -2 3 4 5 6 -7 -8 9 10 -11 -12 13 14 15 16 -17 -18 -19 -20 21 22 23 24 -25 26 -27 28 29 30 31 -32 33 34 35 36 0
-1 -2 3 4 5 6 -7 -8 9 10 -11 -12 13 14 15 16 -17 -18 -19 -20 21 22 23 24 -25 26 -27 28 29 30 31 -32 -33 34 35 36 0
-1 -2 3 4 5 6 -7 -8 9 10 11 12 13 14 15 16 -17 -18 -19 -20 21 22 -23 24 -25 26 -27 28 -29 30 31 -32 -33 34 -35 -36 0
-1 -2 3 4 -5 -6 -7 -8 9 10 -11 -12 13 14 15 16 17 18 -19 -20 21 22 23 24 -25 26 -27 28 29 30 31 -32 33 34 35 36 0
1 2 3 4 -5 -6 7 8 9 10 -11 -12 13 14 15 16 17 18 -19 -20 21 22 23 24 -25 26 -27 28 29 30 31 -32 33 34 35 36 0
1 2 3 4 -5 -6 7 8 9 10 -11 -12 13 14 15 16 17 18 19 -20 21 22 23 24 -25 26 -27 28 29 30 31 -32 33 34 35 36 0
1 2 3 4 -5 -6 7 8 9 10 -11 -12 13 14 15 16 17 18 19 -20 21 22 23 24 -25 26 -27 28 29 30 -31 -32 33 34 35 36 0
1 2 3 4 -5 -6 7 8 9 10 -11 -12 13 14 15 16 17 18 19 -20 21 22 23 24 -25 26 -27 28 29 30 31 -32 -33 34 35 36 0
1 2 3 4 -5 -6 7 8 9 10 -11 -12 13 14 15 16 17 18 19 -20 21 22 23 24 -25 26 -27 28 -29 -30 31 -32 -33 34 -35 -36 0
1 2 3 4 -5 -6 7 8 9 10 -11 -12 13 14 15 16 17 18 -19 -20 21 22 23 24 -25 26 -27 28 -29 -30 31 -32 -33 34 -35 -36 0
-1 -2 3 4 -5 -6 -7 -8 9 10 -11 -12 13 14 15 16 17 18 -19 -20 21 22 23 24 -25 26 -27 28 -29 -30 31 -32 -33 34 -35 -36 0
-1 -2 3 4 -5 -6 -7 -8 9 10 -11 -12 13 14 15 16 17 18 -19 -20 21 22 23 24 -25 26 -27 28 29 30 31 -32 -33 34 35 36 0
1 2 3 4 -5 -6 7 8 9 10 -11 -12 13 14 15 16 17 18 -19 -20 21 22 23 24 -25 26 -27 28 29 30 31 -32 -33 34 35 36 0
-1 -2 3 4 -5 -6 -7 -8 9 10 -11 -12 13 14 15 16 17 18 -19 -20 21 22 23 24 -25 26 -27 28 -29 30 31 32 33 -34 -35 36 0
1 2 3 4 -5 -6 7 8 9 10 -11 -12 13 14 15 16 17 18 -19 -20 21 22 23 24 -25 26 -27 28 -29 30 31 32 33 -34 -35 36 0
1 -2 -3 4 5 6 7 8 -9 10 11 12 -13 14 15 16 17 18 -19 -20 21 22 23 24 25 26 -27 28 -29 -30 31 32 -33 -34 35 -36 0
1 -2 -3 4 -5 -6 7 8 -9 10 -11 -12 -13 14 15 16 17 18 -19 -20 21 22 23 24 25 26 -27 28 -29 -30 31 32 -33 -34 35 -36 0
1 2 3 -4 5 6 7 -8 -9 -10 11 12 -13 14 15 16 17 18 -19 -20 21 22 23 24 25 26 -27 28 -29 -30 31 32 -33 -34 35 -36 0
1 2 -3 -4 5 -6 7 8 -9 10 -11 -12 13 14 15 16 17 18 19 -20 21 22 23 24 -25 26 -27 28 29 30 31 -32 -33 34 35 36 0
1 2 -3 -4 5 -6 7 8 -9 10 -11 -12 13 14 15 16 17 18 19 -20 21 22 23 24 -25 26 -27 28 29 30 31 -32 33 34 35 36 0
1 2 -3 -4 5 -6 7 8 -9 10 -11 -12 13 14 15 16 17 18 19 -20 21 22 23 24 -25 26 -27 28 29 30 -31 -32 33 34 35 36 0
1 -2 -3 4 -5 -6 -7 8 -9 10 -11 -12 -13 14 15 16 17 18 19 -20 21 22 23 24 25 26 -27 28 29 30 31 -32 -33 34 35 36 0
1 2 -3 -4 5 6 7 8 -9 10 11 -12 13 14 15 16 -17 -18 19 -20 21 22 23 24 -25 26 -27 28 29 30 31 -32 -33 34 35 36 0
1 2 -3 -4 5 6 7 8 -9 10 11 -12 13 14 15 16 -17 -18 19 -20 21 22 23 24 -25 26 -27 28 29 30 31 -32 33 34 35 36 0
1 2 -3 -4 5 6 7 8 -9 10 11 -12 13 14 15 16 -17 -18 19 -20 21 22 23 24 -25 26 -27 28 29 30 -31 -32 33 34 35 36 0
1 2 -3 -4 5 6 7 8 -9 10 11 12 13 14 15 -16 -17 -18 19 20 21 22 23 -24 -25 -26 27 28 29 30 -31 -32 33 34 35 36 0
1 2 3 -4 -5 6 7 8 -9 10 11 -12 13 14 15 -16 -17 18 19 20 21 22 23 24 -25 -26 27 28 29 30 -31 -32 33 34 35 36 0
-1 -2 3 4 -5 -6 -7 8 -9 10 11 -12 13 14 15 -16 -17 18 19 20 21 22 23 24 -25 -26 27 28 29 30 -31 -32 33 34 35 36 0
-1 -2 3 4 5 6 -7 8 -9 10 11 12 13 14 15 -16 17 18 19 20 21 22 -23 24 -25 -26 27 28 29 -30 -31 -32 33 34 -35 -36 0
-1 -2 3 4 5 6 -7 8 -9 10 11 12 13 14 15 -16 17 -18 19 20 21 22 -23 -24 -25 -26 27 28 29 30 -31 -32 33 34 35 36 0
1 2 3 -4 -5 6 7 8 -9 10 11 -12 13 14 15 -16 17 -18 19 20 21 22 -23 24 -25 -26 27 28 29 30 -31 -32 33 34 35 36 0
1 2 -3 -4 5 6 7 8 -9 10 11 12 13 14 15 -16 17 18 19 20 21 22 -23 24 -25 -26 27 28 29 -30 -31 -32 33 34 -35 -36 0
-1 -2 3 4 5 6 -7 8 -9 10 11 12 13 14 15 -16 17 18 19 20 21 22 -23 24 25 26 27 28 29 -30 31 32 33 34 -35 -36 0
1 2 3 -4 -5 6 7 8 -9 10 11 -12 13 -14 15 -16 17 -18 -19 20 -21 22 -23 24 -25 26 -27 28 29 30 31 -32 -33 34 35 36 0
1 2 3 -4 -5 6 7 8 -9 10 11 -12 13 -14 15 -16 17 -18 -19 20 -21 22 -23 24 -25 26 27 -28 29 30 31 -32 -33 34 35 36 0
1 2 3 -4 -5 6 7 8 -9 10 11 -12 13 -14 15 -16 -17 -18 -19 20 -21 22 23 24 -25 26 27 -28 29 30 31 -32 -33 34 35 36 0
1 -2 3 4 -5 -6 -7 8 -9 10 11 -12 13 -14 15 -16 -17 18 19 20 -21 22 23 24 25 26 27 -28 29 -30 31 32 33 34 -35 -36 0
-1 -2 3 4 -5 -6 -7 8 -9 10 11 -12 13 -14 15 -16 -17 18 19 20 -21 22 23 24 25 26 27 -28 29 -30 31 32 33 34 -35 -36 0
-1 -2 3 4 5 6 -7 8 -9 10 11 12 13 -14 15 -16 17 18 19 20 -21 22 23 24 25 26 27 -28 -29 -30 31 32 33 34 35 -36 0
1 -2 3 4 5 6 -7 8 -9 10 11 12 13 -14 15 -16 17 18 19 20 -21 22 23 24 25 26 27 -28 -29 -30 31 32 33 34 35 -36 0
1 -2 3 4 5 6 -7 8 -9 10 11 12 13 -14 15 -16 17 18 19 20 -21 22 -23 24 25 26 27 -28 29 -30 31 32 33 34 -35 -36 0
1 -2 3 4 5 6 -7 8 -9 10 11 12 13 -14 15 -16 17 18 19 20 -21 22 -23 24 25 26 27 -28 29 -30 31 32 33 34 -35 36 0
-1 -2 3 4 5 6 -7 8 -9 10 11 12 13 -14 15 -16 17 18 19 20 -21 22 -23 24 25 26 27 -28 29 -30 31 32 33 34 -35 36 0
-1 -2 3 4 5 6 -7 8 -9 10 11 12 13 -14 15 -16 17 18 19 20 -21 22 -23 24 25 26 27 -28 29 -30 31 32 33 34 -35 -36 0
-1 -2 3 4 5 6 7 -8 9 10 11 12 13 -14 15 -16 -17 18 19 20 -21 22 23 -24 25 26 27 -28 29 -30 31 32 33 34 -35 36 0
-1 -2 3 4 5 6 7 -8 9 10 11 -12 13 -14 15 -16 -17 -18 19 20 -21 22 23 24 25 26 27 -28 -29 -30 31 32 33 34 35 -36 0
-1 -2 3 4 5 6 7 -8 9 10 11 -12 13 -14 15 -16 -17 -18 19 20 -21 22 23 24 25 26 27 -28 29 30 31 32 -33 -34 35 36 0
-1 2 3 4 -5 -6 -7 -8 -9 10 11 -12 13 14 15 -16 -17 18 19 20 -21 22 23 24 25 26 27 -28 29 -30 31 32 33 34 -35 -36 0
-1 -2 3 4 -5 -6 -7 8 -9 10 11 -12 13 14 15 -16 -17 18 19 20 21 22 23 24 25 26 27 -28 -29 30 31 32 33 -34 -35 36 0
-1 -2 3 4 -5 -6 -7 8 9 10 11 -12 13 -14 -15 -16 -17 18 19 20 21 22 23 24 25 26 27 -28 -29 30 31 32 33 -34 -35 36 0
-1 -2 3 4 -5 -6 -7 8 9 10 11 -12 13 -14 -15 -16 -17 18 19 20 21 22 23 24 25 -26 -27 -28 -29 30 31 -32 33 34 -35 36 0
1 -2 -3 4 5 6 7 -8 9 10 11 12 13 14 -15 -16 -17 18 19 20 21 22 23 -24 -25 -26 -27 -28 29 -30 -31 32 33 -34 -35 36 0
1 -2 -3 4 5 6 7 -8 9 10 11 -12 13 14 -15 -16 -17 -18 19 20 21 22 23 24 -25 -26 -27 -28 29 30 -31 32 33 -34 35 36 0
1 2 -3 -4 5 6 7 8 -9 10 11 12 13 14 15 -16 17 18 19 20 -21 -22 23 24 -25 26 27 -28 29 -30 -31 -32 33 34 -35 -36 0
-1 2 3 4 5 6 -7 -8 -9 10 11 12 13 14 15 -16 17 18 19 20 -21 -22 23 24 -25 26 27 -28 29 -30 -31 -32 33 34 -35 -36 0
-1 -2 3 4 -5 -6 7 -8 9 10 11 -12 13 -14 15 -16 17 18 19 20 -21 -22 -23 24 25 26 27 28 29 -30 31 32 33 34 -35 -36 0
1 2 3 4 -5 -6 7 8 9 10 11 -12 -13 -14 15 -16 17 18 -19 20 -21 -22 -23 24 25 26 27 28 29 -30 31 32 33 34 -35 -36 0
1 -2 -3 4 5 6 7 -8 9 10 11 12 13 14 15 -16 17 18 19 20 -21 -22 23 24 -25 26 27 -28 29 -30 -31 -32 33 34 -35 -36 0
1 2 3 4 -5 -6 7 8 9 -10 11 -12 13 14 15 -16 17 18 19 20 -21 -22 23 24 -25 26 27 -28 29 -30 -31 -32 33 34 -35 -36 0
1 2 -3 -4 5 6 7 -8 9 10 -11 12 -13 14 15 -16 17 -18 -19 20 -21 -22 23 -24 25 -26 27 28 -29 30 31 32 -33 -34 35 36 0
1 2 3 4 -5 -6 7 8 9 -10 11 -12 13 14 15 -16 17 18 19 -20 -21 -22 23 24 -25 26 27 28 29 30 -31 -32 33 34 35 36 0
-1 2 3 4 5 6 -7 -8 -9 10 11 12 13 14 15 -16 17 18 19 20 -21 22 23 24 25 26 27 -28 -29 -30 31 32 33 34 35 -36 0
-1 -2 3 4 5 6 -7 8 -9 10 11 12 13 14 -15 16 17 18 19 20 -21 22 -23 -24 -25 26 -27 28 -29 -30 -31 -32 33 34 35 36 0
1 -2 -3 4 5 6 7 8 -9 10 11 12 13 14 -15 16 -17 -18 -19 20 -21 22 -23 24 -25 -26 27 28 -29 30 31 32 33 34 -35 -36 0
1 2 3 -4 -5 6 7 8 -9 10 11 -12 13 14 -15 16 -17 -18 -19 20 -21 22 -23 24 -25 -26 27 28 -29 30 31 32 33 34 -35 -36 0
-1 -2 3 4 5 6 -7 8 -9 10 -11 -12 13 14 -15 16 -17 18 19 20 -21 22 23 -24 25 26 27 -28 29 -30 31 32 33 34 -35 36 0
-1 -2 3 4 5 6 -7 8 -9 10 -11 -12 13 14 -15 16 -17 -18 19 20 -21 22 23 24 25 26 27 -28 -29 -30 31 32 33 34 35 -36 0
-1 -2 3 4 5 6 -7 8 -9 10 -11 -12 13 14 -15 16 -17 18 19 -20 -21 22 23 -24 25 26 27 -28 29 -30 31 32 33 -34 -35 36 0
-1 -2 3 4 5 6 -7 8 -9 10 -11 -12 13 14 -15 16 -17 -18 19 -20 -21 22 23 24 -25 26 27 -28 -29 -30 -31 -32 33 34 35 -36 0
1 -2 -3 4 5 6 7 8 -9 10 11 12 13 14 -15 16 -17 -18 19 -20 -21 22 23 -24 -25 26 27 -28 -29 30 -31 -32 33 34 35 36 0
1 2 3 -4 -5 6 7 8 -9 10 11 -12 13 14 -15 16 -17 -18 19 -20 -21 22 23 24 -25 26 27 -28 -29 -30 -31 -32 33 34 35 -36 0
1 -2 -3 4 5 6 -7 8 -9 10 11 12 -13 14 -15 16 -17 -18 19 -20 -21 22 23 -24 25 26 27 -28 29 30 31 32 33 -34 -35 36 0
1 -2 -3 4 5 6 7 -8 9 10 -11 -12 13 14 -15 16 -17 -18 19 -20 -21 22 23 24 -25 26 27 -28 -29 -30 -31 -32 33 34 35 -36 0
1 -2 -3 4 5 6 7 -8 9 10 -11 -12 13 14 -15 16 -17 18 19 -20 -21 22 23 -24 -25 26 27 -28 -29 30 -31 -32 33 34 35 36 0
1 -2 -3 4 5 6 7 -8 9 10 -11 -12 13 14 -15 16 -17 18 19 -20 -21 22 23 -24 -25 26 27 -28 29 -30 -31 -32 33 34 -35 36 0
-1 -2 3 4 5 6 -7 8 -9 10 -11 -12 13 14 -15 16 -17 18 19 -20 -21 22 23 -24 -25 26 27 -28 29 -30 -31 -32 33 34 -35 36 0
-1 -2 3 4 5 6 -7 8 -9 10 -11 -12 13 14 -15 16 -17 18 19 -20 -21 22 23 -24 -25 26 27 -28 -29 30 -31 -32 33 34 35 36 0
1 -2 3 4 5 6 -7 8 -9 10 -11 -12 -13 14 -15 16 -17 18 19 -20 -21 22 23 -24 25 26 27 -28 29 -30 31 32 33 -34 -35 36 0
1 -2 -3 4 5 6 -7 8 9 -10 11 12 -13 14 -15 16 -17 18 19 -20 -21 22 23 -24 25 26 27 -28 29 -30 31 32 33 -34 -35 36 0
-1 -2 3 4 5 6 -7 8 -9 10 -11 -12 13 14 -15 16 -17 -18 19 -20 -21 22 23 24 25 -26 27 28 -29 -30 31 32 -33 -34 35 -36 0
1 -2 -3 4 5 6 7 8 -9 10 11 12 13 14 -15 16 -17 -18 19 -20 -21 22 23 -24 -25 26 27 -28 29 30 31 -32 -33 34 35 36 0
-1 -2 3 4 5 6 -7 8 9 10 11 12 13 14 -15 16 -17 -18 19 -20 -21 22 -23 24 25 26 27 28 -29 30 31 32 33 34 -35 -36 0
1 -2 -3 4 5 6 -7 8 -9 10 11 12 -13 14 -15 16 -17 -18 19 -20 -21 22 -23 24 25 26 27 28 -29 30 31 32 33 34 -35 -36 0
-1 -2 3 4 5 6 -7 8 9 10 11 12 13 14 -15 16 -17 -18 19 -20 -21 22 -23 24 25 -26 27 28 -29 30 31 32 -33 -34 35 36 0
1 -2 -3 4 5 6 -7 8 9 -10 11 12 13 -14 -15 16 -17 18 19 20 -21 22 -23 24 25 -26 27 28 -29 -30 31 -32 -33 34 35 36 0
-1 -2 3 4 5 6 -7 8 9 -10 11 12 13 -14 -15 16 -17 18 19 20 -21 22 -23 24 25 -26 27 28 -29 -30 31 -32 -33 34 35 36 0
-1 -2 3 4 -5 6 -7 8 9 -10 11 -12 13 -14 -15 16 -17 -18 19 20 -21 22 23 24 25 -26 27 28 -29 -30 31 32 -33 -34 35 -36 0
-1 -2 3 4 5 6 -7 8 9 -10 11 -12 13 -14 -15 16 -17 -18 19 20 -21 22 23 24 25 -26 27 28 -29 -30 31 32 -33 -34 35 -36 0
1 -2 -3 4 5 6 -7 8 9 -10 11 -12 13 -14 -15 16 -17 -18 19 20 -21 22 23 24 25 -26 27 28 -29 -30 31 32 -33 -34 35 -36 0
1 -2 -3 4 5 6 -7 8 9 -10 11 -12 13 -14 -15 16 -17 -18 19 20 -21 22 23 24 25 26 -27 28 -29 -30 31 -32 -33 34 -35 -36 0
-1 -2 3 4 5 6 -7 8 9 -10 11 -12 13 -14 -15 16 -17 -18 19 20 -21 22 23 24 25 26 -27 28 -29 -30 31 -32 -33 34 -35 -36 0
-1 -2 3 4 -5 6 -7 8 9 -10 11 -12 13 -14 -15 16 -17 -18 19 20 -21 22 23 24 25 26 -27 28 -29 -30 31 -32 -33 34 -35 -36 0
-1 -2 3 4 5 6 -7 8 9 -10 11 12 13 -14 -15 16 -17 18 19 20 -21 22 -23 24 -25 26 -27 28 -29 -30 -31 -32 33 34 35 36 0
1 -2 -3 4 5 6 -7 8 9 -10 11 12 13 -14 -15 16 -17 18 19 20 -21 22 -23 24 -25 26 -27 28 -29 -30 -31 -32 33 34 35 36 0
-1 -2 3 4 5 6 -7 8 9 -10 -11 12 13 -14 -15 16 17 -18 19 20 -21 22 -23 24 -25 26 -27 28 -29 -30 -31 -32 33 34 35 36 0
-1 -2 3 4 -5 6 -7 8 9 -10 11 -12 13 -14 -15 16 17 -18 19 20 -21 22 -23 24 -25 26 -27 28 -29 -30 -31 -32 33 34 35 36 0
1 2 3 -4 -5 6 7 8 9 -10 11 -12 13 -14 -15 16 17 -18 19 20 -21 22 -23 24 -25 26 -27 28 -29 -30 -31 -32 33 34 35 36 0
-1 -2 3 4 -5 6 -7 8 9 -10 11 -12 13 -14 -15 16 17 -18 19 20 -21 22 -23 24 25 -26 27 28 -29 -30 31 -32 -33 34 35 36 0
-1 -2 3 4 5 6 -7 8 9 -10 -11 12 13 -14 -15 16 17 -18 19 20 -21 22 -23 24 25 -26 27 28 -29 -30 31 -32 -33 34 35 36 0
1 2 3 -4 -5 6 7 8 9 -10 11 -12 13 -14 -15 16 17 -18 -19 20 -21 22 -23 24 -25 26 27 -28 29 30 31 -32 -33 34 35 36 0
-1 -2 3 4 -5 6 -7 8 9 -10 11 -12 13 -14 -15 16 -17 18 19 20 -21 22 23 24 -25 26 -27 28 29 30 -31 -32 33 34 35 36 0
-1 -2 3 4 -5 -6 -7 8 9 -10 11 -12 13 -14 -15 16 -17 18 19 20 -21 22 23 24 -25 26 -27 28 29 30 -31 -32 33 34 35 36 0
-1 -2 3 4 -5 -6 -7 8 9 -10 11 -12 13 -14 -15 16 -17 18 19 20 -21 22 23 24 25 26 -27 28 -29 30 31 32 33 -34 -35 36 0
-1 -2 3 4 -5 6 -7 8 9 -10 11 -12 13 -14 -15 16 -17 18 19 20 -21 22 23 24 25 26 -27 28 -29 30 31 32 33 -34 -35 36 0
1 2 3 4 -5 6 7 8 9 -10 11 -12 13 14 -15 16 -17 18 19 20 -21 22 23 24 -25 26 -27 28 29 30 -31 -32 33 34 35 36 0
1 2 3 4 -5 -6 7 8 9 -10 11 -12 13 14 -15 16 -17 18 19 20 -21 22 23 24 -25 26 -27 28 29 30 -31 -32 33 34 35 36 0
1 2 -3 4 5 6 7 -8 9 -10 11 -12 -13 14 -15 16 -17 -18 -19 20 -21 22 23 24 25 -26 27 28 -29 -30 31 32 -33 -34 35 -36 0
1 2 3 4 -5 6 7 8 9 -10 11 -12 13 14 -15 16 -17 -18 19 20 -21 22 23 24 -25 26 -27 28 29 30 -31 -32 33 34 35 36 0
1 2 3 4 -5 6 7 8 9 -10 11 -12 13 14 -15 16 17 -18 19 20 -21 22 -23 24 -25 26 -27 28 -29 -30 -31 -32 33 34 35 36 0
1 2 3 4 -5 -6 -7 -8 9 10 -11 12 -13 14 -15 16 -17 18 19 20 -21 22 -23 -24 25 26 -27 28 29 30 31 -32 -33 34 35 36 0
1 2 3 4 -5 -6 -7 -8 9 10 -11 12 -13 14 -15 16 -17 18 19 20 -21 22 -23 -24 25 26 -27 28 29 -30 31 32 33 -34 -35 36 0
-1 -2 3 4 5 6 -7 8 -9 10 -11 -12 13 14 -15 16 -17 -18 19 20 -21 22 23 24 -25 26 -27 28 29 30 -31 -32 33 34 35 36 0
-1 -2 3 4 5 6 -7 8 9 -10 11 -12 13 -14 -15 16 -17 -18 19 20 -21 22 23 24 -25 26 -27 28 29 30 -31 -32 33 34 35 36 0
-1 -2 3 4 -5 6 -7 8 9 -10 11 -12 13 -14 -15 16 -17 -18 19 20 -21 22 23 24 -25 26 -27 28 29 30 -31 -32 33 34 35 36 0
1 -2 -3 4 5 6 -7 8 9 -10 11 -12 13 -14 -15 16 -17 -18 19 20 -21 22 23 24 -25 26 -27 28 29 30 -31 -32 33 34 35 36 0
1 -2 -3 4 5 6 -7 8 9 -10 11 -12 13 -14 -15 16 -17 -18 19 20 -21 22 23 24 25 26 -27 28 -29 -30 31 32 33 -34 35 -36 0
-1 -2 3 4 5 6 -7 8 9 -10 11 -12 13 -14 -15 16 -17 -18 19 20 -21 22 23 24 25 26 -27 28 -29 -30 31 32 33 -34 35 -36 0
-1 -2 3 4 -5 6 -7 8 9 -10 11 -12 13 -14 -15 16 -17 -18 19 20 -21 22 23 24 25 26 -27 28 -29 -30 31 32 33 -34 35 -36 0
1 2 3 4 -5 -6 7 8 9 10 -11 12 13 -14 -15 16 -17 18 -19 20 -21 22 -23 -24 -25 26 -27 28 29 30 31 -32 -33 34 35 36 0
1 -2 3 4 5 6 -7 8 -9 10 11 12 13 -14 -15 16 17 18 19 20 21 -22 -23 24 25 26 27 -28 29 -30 31 32 33 34 -35 36 0
-1 -2 3 4 5 6 -7 8 -9 10 11 12 13 -14 -15 16 17 18 19 20 21 -22 -23 24 25 26 27 -28 29 -30 31 32 33 34 -35 36 0
-1 -2 3 4 5 6 -7 8 -9 10 11 12 13 -14 -15 16 17 18 19 20 21 -22 -23 24 25 26 27 -28 29 -30 31 32 33 34 -35 -36 0
1 -2 3 4 5 6 -7 8 -9 10 11 12 13 -14 -15 16 17 18 19 20 21 -22 -23 24 25 26 27 -28 29 -30 31 32 33 34 -35 -36 0
1 2 -3 -4 5 6 7 8 9 -10 11 12 13 14 -15 16 17 18 19 -20 21 -22 -23 -24 25 -26 27 28 29 -30 -31 -32 33 34 35 36 0
1 2 3 4 5 -6 7 8 9 -10 -11 -12 13 14 -15 16 17 18 19 -20 21 -22 -23 -24 25 -26 27 28 29 -30 -31 -32 33 34 35 36 0
1 2 3 4 -5 6 7 8 9 -10 11 -12 13 14 -15 16 17 -18 19 -20 21 -22 -23 24 25 -26 27 28 29 30 -31 -32 33 34 35 36 0
1 2 3 4 -5 -6 7 8 9 -10 11 -12 13 14 -15 16 17 18 19 -20 21 -22 -23 24 -25 26 -27 28 29 -30 -31 -32 33 34 -35 -36 0
1 2 3 4 -5 -6 7 8 9 -10 11 -12 13 14 -15 16 17 18 19 -20 21 -22 -23 24 -25 26 -27 28 29 -30 31 -32 33 34 -35 -36 0
1 -2 -3 4 5 6 -7 8 9 -10 11 12 -13 14 -15 16 17 18 19 -20 21 -22 -23 -24 25 26 -27 28 29 -30 31 32 33 -34 -35 36 0
1 2 -3 -4 5 -6 7 -8 9 10 -11 -12 -13 14 -15 16 17 18 19 -20 21 -22 -23 -24 25 26 -27 28 29 -30 31 32 33 -34 -35 36 0
1 -2 -3 4 -5 -6 -7 8 -9 10 -11 -12 -13 14 -15 16 17 18 19 -20 21 -22 -23 -24 25 26 -27 28 29 -30 31 32 33 -34 -35 36 0
1 -2 3 4 5 6 -7 8 -9 10 11 12 -13 14 -15 16 17 18 19 -20 21 -22 -23 24 25 26 -27 28 29 -30 31 32 33 -34 -35 36 0
-1 -2 3 4 5 6 -7 8 -9 10 11 12 13 14 -15 16 17 18 19 -20 21 -22 -23 24 25 26 -27 28 29 -30 31 32 33 -34 -35 36 0
-1 -2 3 4 5 6 -7 8 -9 10 11 12 13 14 -15 16 17 18 19 -20 21 -22 -23 24 25 26 -27 28 29 -30 31 32 33 34 -35 -36 0
-1 -2 3 4 5 6 -7 8 -9 10 11 12 13 14 -15 16 17 18 19 -20 21 -22 -23 24 -25 26 -27 28 29 -30 31 -32 33 34 -35 -36 0
-1 -2 3 4 5 6 -7 8 -9 10 11 12 13 14 -15 16 17 18 19 -20 21 -22 -23 24 -25 26 -27 28 29 -30 -31 -32 33 34 -35 -36 0
-1 -2 3 4 5 6 -7 8 -9 10 11 12 13 14 -15 16 17 18 19 -20 21 -22 -23 24 25 -26 -27 28 29 -30 31 32 33 34 -35 -36 0
1 -2 3 4 5 6 -7 8 -9 10 11 12 -13 14 -15 16 17 18 19 -20 21 -22 -23 24 25 26 -27 28 29 -30 31 32 33 34 -35 -36 0
1 2 3 4 5 -6 7 8 9 -10 -11 -12 13 14 -15 16 17 18 19 -20 21 -22 23 24 -25 26 -27 28 29 30 31 -32 33 34 35 36 0
1 2 3 4 5 -6 7 8 9 -10 -11 -12 13 14 -15 16 17 18 19 -20 21 -22 23 24 -25 26 -27 28 29 30 -31 -32 33 34 35 36 0
-1 -2 3 4 5 6 -7 -8 9 10 11 12 13 14 15 16 -17 18 19 20 21 -22 23 -24 25 26 -27 28 -29 30 31 32 33 -34 35 36 0
-1 -2 3 4 5 6 -7 -8 9 10 11 12 13 14 15 16 -17 18 19 20 21 -22 23 -24 25 26 -27 28 -29 30 31 32 -33 -34 35 36 0
-1 -2 3 4 5 6 -7 -8 9 10 11 12 13 14 15 16 -17 18 19 20 21 -22 23 -24 25 26 -27 28 29 -30 31 32 33 -34 -35 36 0
1 -2 -3 4 5 6 -7 8 9 -10 11 12 -13 -14 -15 16 -17 18 19 20 21 -22 23 -24 -25 -26 27 28 -29 30 -31 32 -33 -34 35 36 0
1 -2 -3 4 5 6 -7 8 9 -10 11 12 -13 -14 -15 16 -17 18 19 20 21 -22 23 -24 25 26 -27 28 29 -30 31 32 33 -34 -35 36 0
1 -2 -3 4 5 6 -7 8 9 -10 11 12 13 -14 -15 16 -17 18 19 20 21 -22 23 24 25 26 27 -28 29 -30 31 32 33 34 -35 -36 0
-1 -2 3 4 5 6 -7 8 9 -10 11 12 13 -14 -15 16 -17 18 19 20 21 -22 23 24 25 26 27 -28 29 -30 31 32 33 34 -35 -36 0
-1 -2 3 4 -5 6 -7 8 9 -10 11 -12 13 -14 -15 16 -17 18 19 20 21 -22 23 24 25 26 27 -28 29 -30 31 32 33 34 -35 -36 0
-1 -2 3 4 -5 -6 -7 8 9 -10 11 -12 13 -14 -15 16 -17 18 19 20 21 -22 23 24 25 26 27 -28 29 -30 31 32 33 34 -35 -36 0
-1 -2 3 4 5 6 -7 8 9 -10 -11 12 13 -14 -15 16 -17 18 19 20 21 -22 23 24 25 26 27 -28 29 -30 31 32 33 34 -35 -36 0
1 -2 -3 4 5 6 -7 8 9 -10 11 12 -13 -14 -15 16 -17 18 19 20 21 -22 23 -24 -25 -26 27 -28 29 -30 -31 -32 33 -34 -35 36 0
-1 -2 3 4 5 6 -7 8 9 -10 11 12 13 -14 -15 16 -17 18 19 20 21 -22 23 -24 25 26 27 -28 29 -30 31 32 33 34 -35 36 0
1 -2 -3 4 5 6 -7 8 9 -10 11 12 13 -14 -15 16 -17 18 19 20 21 -22 23 -24 25 26 27 -28 29 -30 31 32 33 34 -35 36 0
1 -2 -3 4 5 6 7 -8 9 -10 11 12 13 14 15 16 -17 18 19 20 -21 -22 23 24 -25 26 27 -28 29 -30 -31 -32 33 34 -35 -36 0
-1 -2 3 -4 -5 6 7 -8 9 -10 11 12 -13 14 15 16 -17 18 -19 20 -21 -22 23 24 25 -26 27 -28 29 -30 31 32 33 34 -35 -36 0
-1 -2 3 -4 -5 6 7 -8 9 -10 11 -12 -13 14 15 16 -17 18 -19 20 -21 -22 23 24 25 -26 27 -28 29 -30 31 32 33 34 -35 -36 0
-1 -2 3 -4 -5 6 7 -8 9 -10 11 -12 -13 14 15 16 -17 18 19 -20 -21 -22 23 24 25 26 27 -28 29 -30 31 32 33 34 -35 -36 0
1 2 3 4 -5 6 -7 -8 9 -10 11 -12 -13 14 15 16 -17 18 19 -20 -21 -22 23 24 25 26 27 -28 29 -30 31 32 33 34 -35 -36 0
1 2 3 4 -5 -6 -7 -8 9 -10 11 -12 -13 14 15 16 -17 18 19 -20 -21 -22 23 24 25 26 27 -28 29 -30 31 32 33 34 -35 -36 0
-1 -2 3 -4 -5 6 7 -8 9 -10 11 12 -13 14 15 16 -17 18 19 -20 -21 -22 23 24 25 26 27 -28 29 -30 31 32 33 34 -35 -36 0
1 2 3 4 -5 6 7 8 9 -10 11 -12 13 14 15 16 -17 18 19 -20 -21 -22 23 24 -25 26 27 -28 29 -30 -31 -32 33 34 -35 -36 0
1 2 3 4 -5 -6 7 8 9 -10 11 -12 13 14 15 16 -17 18 19 -20 -21 -22 23 24 -25 26 27 -28 29 -30 -31 -32 33 34 -35 -36 0
1 2 3 -4 -5 6 7 8 9 -10 11 -12 13 14 15 16 -17 18 19 -20 -21 -22 23 24 -25 26 27 -28 29 -30 -31 -32 33 34 -35 -36 0
1 2 3 -4 -5 6 7 8 9 -10 11 12 13 14 15 16 -17 18 19 -20 -21 -22 23 24 -25 26 27 -28 29 -30 -31 -32 33 34 -35 -36 0
-1 -2 3 -4 -5 6 -7 -8 9 -10 11 12 13 14 15 16 -17 18 -19 -20 -21 -22 23 24 -25 26 27 -28 29 -30 31 32 33 34 -35 -36 0
-1 -2 3 -4 -5 6 -7 -8 9 -10 11 -12 13 14 15 16 -17 18 -19 -20 -21 -22 23 24 -25 26 27 -28 29 -30 31 32 33 34 -35 -36 0
1 -2 -3 4 5 6 7 -8 9 -10 11 12 13 14 15 16 -17 18 19 20 -21 -22 23 -24 -25 26 27 -28 29 -30 -31 -32 33 34 -35 36 0
-1 -2 3 -4 -5 6 7 -8 9 -10 11 12 -13 14 15 16 -17 18 -19 20 -21 -22 23 -24 25 -26 27 -28 29 -30 31 32 33 34 -35 36 0
-1 -2 3 -4 -5 6 -7 -8 9 -10 11 12 13 14 15 16 -17 18 -19 -20 -21 -22 23 -24 -25 26 27 -28 29 -30 31 32 33 34 -35 36 0
-1 -2 3 -4 -5 6 7 -8 9 -10 11 12 -13 14 15 16 -17 18 19 -20 -21 -22 23 -24 25 26 27 -28 29 -30 31 32 33 34 -35 36 0
1 2 3 -4 -5 6 7 8 9 -10 11 12 13 14 15 16 -17 18 19 -20 -21 -22 23 -24 -25 26 27 -28 29 -30 -31 -32 33 34 -35 36 0
-1 -2 3 -4 -5 6 7 -8 9 -10 11 12 -13 14 15 16 -17 18 -19 20 -21 -22 23 -24 25 -26 27 28 -29 30 31 32 -33 -34 35 36 0
1 -2 -3 4 5 6 -7 8 9 -10 11 12 -13 -14 15 16 -17 18 19 20 -21 -22 23 -24 25 26 -27 28 29 -30 31 32 33 -34 -35 36 0
-1 -2 3 -4 -5 6 7 -8 9 -10 11 12 13 -14 15 16 -17 18 19 20 -21 22 -23 24 -25 26 -27 28 -29 -30 -31 -32 33 34 35 36 0
1 2 -3 4 5 6 7 -8 9 -10 11 12 13 -14 15 16 -17 18 19 20 -21 22 -23 24 -25 26 -27 28 -29 -30 -31 -32 33 34 35 36 0
1 -2 3 4 5 6 7 -8 -9 -10 11 12 13 14 15 16 -17 18 19 -20 -21 22 -23 24 -25 26 -27 28 -29 -30 -31 -32 33 34 35 36 0
1 -2 3 4 5 6 7 -8 -9 -10 11 12 13 14 15 16 -17 18 19 -20 -21 22 -23 24 -25 26 -27 28 -29 -30 31 -32 33 34 35 36 0
-1 -2 3 -4 5 6 -7 8 -9 -10 11 12 13 14 15 16 -17 -18 19 -20 -21 22 -23 24 25 -26 -27 28 29 -30 31 32 33 34 -35 -36 0
-1 -2 3 -4 5 6 -7 8 -9 -10 11 12 13 14 15 16 -17 -18 19 -20 -21 22 -23 24 -25 26 -27 28 29 -30 31 -32 33 34 -35 -36 0
-1 -2 3 -4 5 6 -7 8 -9 -10 11 12 13 14 15 16 -17 -18 19 -20 -21 22 -23 24 -25 26 -27 28 29 -30 -31 -32 33 34 -35 -36 0
1 -2 3 -4 -5 6 7 -8 -9 10 11 -12 13 14 15 16 -17 -18 19 -20 -21 22 -23 24 -25 26 -27 28 29 -30 -31 -32 33 34 -35 -36 0
1 -2 3 -4 -5 6 7 -8 -9 10 11 -12 13 14 15 16 -17 -18 19 -20 -21 22 -23 24 -25 26 -27 28 29 -30 31 -32 33 34 -35 -36 0
-1 -2 3 4 -5 -6 7 -8 9 10 -11 -12 -13 14 15 16 17 18 -19 20 -21 22 23 24 25 -26 27 -28 29 30 31 32 -33 -34 35 36 0
-1 -2 3 4 -5 -6 7 -8 9 10 -11 -12 -13 14 15 16 17 18 -19 20 -21 22 23 24 25 -26 27 -28 29 30 31 32 -33 34 35 36 0
-1 -2 3 4 5 6 7 -8 9 10 -11 -12 -13 14 15 16 -17 18 -19 20 -21 22 -23 24 25 -26 27 -28 29 30 31 32 -33 34 35 36 0
1 2 3 -4 5 6 7 -8 -9 -10 11 12 -13 14 15 16 -17 -18 -19 20 -21 22 -23 24 25 -26 -27 28 29 -30 31 32 33 34 -35 -36 0
1 2 -3 -4 5 6 7 -8 9 -10 11 12 13 -14 15 16 -17 -18 19 20 -21 22 -23 24 -25 26 -27 28 29 -30 -31 -32 33 34 -35 -36 0
-1 -2 3 4 5 6 -7 -8 9 10 11 12 13 14 15 16 -17 -18 19 20 21 22 -23 24 -25 -26 27 28 29 -30 -31 -32 33 34 -35 -36 0
-1 -2 3 4 5 6 -7 -8 9 10 11 12 13 14 15 16 -17 -18 19 20 21 22 -23 -24 -25 -26 27 28 29 30 -31 -32 33 34 35 36 0
-1 -2 3 4 5 6 -7 -8 9 10 11 12 13 14 15 16 -17 -18 19 20 21 22 -23 24 25 26 27 28 29 -30 31 32 33 34 -35 -36 0
-1 -2 3 4 -5 -6 -7 -8 9 10 11 -12 13 14 15 16 -17 18 19 20 21 22 -23 -24 -25 26 -27 -28 29 30 -31 -32 33 -34 35 36 0
-1 -2 3 4 -5 -6 -7 -8 9 10 11 -12 13 14 15 16 -17 18 19 20 21 22 -23 -24 -25 -26 27 28 29 30 -31 -32 33 34 35 36 0
-1 2 -3 -4 5 6 -7 -8 9 -10 11 12 13 14 15 16 17 18 19 20 21 22 -23 24 25 26 27 -28 29 -30 31 32 33 34 -35 36 0
-1 2 -3 -4 5 6 -7 -8 9 -10 11 12 13 14 15 16 17 18 19 20 21 22 -23 24 25 26 27 -28 29 -30 31 32 33 34 -35 -36 0
-1 2 -3 -4 5 6 -7 -8 9 -10 11 12 13 14 15 16 17 18 19 20 21 22 -23 24 25 26 27 -28 29 -30 31 32 33 -34 -35 36 0
-1 2 -3 -4 5 6 -7 -8 9 -10 11 12 13 14 15 16 17 18 19 20 21 22 -23 24 -25 -26 27 -28 29 -30 -31 -32 33 -34 -35 36 0
-1 -2 3 -4 -5 6 -7 -8 9 -10 11 -12 13 14 15 16 17 -18 19 20 21 22 -23 24 -25 -26 27 -28 29 30 -31 -32 33 -34 -35 36 0
-1 -2 3 -4 -5 6 -7 -8 9 -10 11 -12 13 14 15 16 17 -18 19 20 21 22 -23 24 25 -26 27 -28 29 30 31 -32 -33 34 35 36 0
-1 -2 3 -4 -5 6 -7 -8 9 -10 11 -12 13 14 15 16 17 -18 19 20 21 22 -23 24 25 26 27 -28 29 30 31 32 33 -34 -35 36 0
-1 -2 3 -4 -5 6 -7 -8 9 -10 11 12 13 14 15 16 17 -18 19 20 21 22 -23 -24 -25 -26 27 -28 29 30 -31 32 -33 -34 35 36 0
-1 -2 3 -4 -5 6 -7 -8 9 -10 11 12 13 14 15 16 17 -18 19 20 21 22 -23 -24 -25 -26 27 28 29 30 -31 -32 33 34 35 36 0
-1 -2 3 -4 -5 6 -7 -8 9 -10 11 -12 13 14 15 16 17 -18 19 20 21 22 -23 24 -25 -26 27 28 -29 -30 -31 -32 33 34 35 36 0
1 2 3 -4 -5 6 7 8 9 -10 11 12 13 14 15 16 17 -18 -19 -20 21 22 -23 -24 -25 26 27 -28 29 30 31 32 -33 -34 35 36 0
1 2 3 -4 -5 6 7 8 9 -10 11 -12 13 14 15 16 17 -18 -19 -20 21 22 -23 24 -25 26 27 -28 29 30 31 -32 -33 34 35 36 0
1 2 3 4 -5 -6 7 8 9 10 -11 -12 13 14 15 16 17 18 -19 -20 21 22 -23 -24 -25 26 27 -28 29 -30 31 -32 -33 34 35 36 0
1 2 3 4 -5 -6 7 8 9 10 -11 12 13 14 15 16 17 -18 -19 -20 21 22 -23 -24 -25 26 27 -28 29 30 31 32 -33 -34 35 36 0
-1 -2 3 4 5 6 -7 -8 9 10 11 12 13 14 15 16 17 18 -19 -20 21 22 23 24 -25 26 -27 28 -29 -30 31 -32 -33 34 -35 -36 0
1 2 3 -4 -5 6 7 8 9 -10 -11 12 13 14 15 16 17 18 19 -20 21 22 23 24 -25 26 -27 28 -29 -30 31 -32 -33 34 -35 -36 0
1 2 3 -4 -5 6 7 8 9 -10 -11 12 13 14 15 16 17 18 -19 -20 21 22 23 24 -25 26 -27 28 -29 -30 31 -32 -33 34 -35 -36 0
-1 2 -3 -4 5 6 -7 -8 9 -10 11 12 13 14 15 16 17 18 19 20 21 22 23 24 25 26 -27 28 -29 -30 31 32 -33 -34 35 -36 0
-1 -2 3 -4 -5 6 -7 -8 9 -10 -11 12 13 14 15 16 17 18 19 20 21 22 23 24 25 26 -27 28 -29 -30 31 32 -33 -34 35 -36 0
-1 -2 3 -4 5 6 -7 8 -9 -10 11 12 13 14 15 16 17 18 19 20 21 22 23 24 25 -26 -27 28 -29 -30 31 -32 -33 34 -35 -36 0
-1 -2 3 -4 -5 6 -7 -8 9 -10 -11 12 13 14 15 16 17 18 19 20 21 22 23 24 25 -26 -27 28 -29 -30 31 -32 -33 34 -35 -36 0
-1 2 -3 -4 5 6 -7 -8 9 -10 11 12 13 14 15 16 17 18 19 20 21 22 23 24 25 -26 -27 28 -29 -30 31 -32 -33 34 -35 -36 0
-1 -2 3 -4 -5 6 -7 -8 9 -10 11 -12 13 14 15 16 -17 -18 19 20 21 22 23 24 25 -26 -27 28 29 30 31 -32 -33 34 35 36 0
-1 -2 3 -4 -5 6 -7 -8 9 -10 11 -12 13 14 15 16 -17 18 19 20 21 22 23 24 25 -26 -27 28 29 30 31 -32 -33 34 35 36 0
1 2 3 -4 -5 6 7 8 9 -10 11 -12 13 14 15 16 -17 18 19 20 21 22 23 24 -25 -26 27 28 29 30 -31 -32 33 34 35 36 0
1 2 3 -4 -5 6 7 8 9 -10 11 -12 13 14 15 16 -17 -18 19 20 21 22 23 24 -25 -26 27 28 29 30 -31 -32 33 34 35 36 0
1 2 3 -4 -5 6 7 8 9 -10 11 -12 13 14 15 16 -17 -18 19 20 21 22 23 24 -25 -26 27 28 -29 -30 -31 -32 33 34 -35 -36 0
1 2 3 -4 -5 6 7 8 9 -10 11 12 13 14 15 16 -17 18 19 20 21 22 23 -24 -25 -26 27 28 -29 -30 -31 -32 33 34 35 36 0
1 2 3 -4 -5 6 7 8 9 -10 11 -12 13 14 15 16 -17 -18 -19 -20 21 22 23 24 -25 26 -27 28 29 30 31 -32 -33 34 35 36 0
1 2 3 -4 -5 6 7 8 9 -10 11 -12 13 14 15 16 -17 18 -19 -20 21 22 23 24 -25 26 -27 28 29 30 31 -32 -33 34 35 36 0
1 2 3 -4 -5 6 7 8 9 -10 11 -12 13 14 15 16 -17 18 19 -20 21 22 23 24 -25 26 -27 28 29 30 31 -32 -33 34 35 36 0
1 2 3 -4 -5 6 7 8 9 -10 11 -12 13 14 15 16 -17 -18 19 -20 21 22 23 24 -25 26 -27 28 29 30 31 -32 -33 34 35 36 0
1 2 -3 -4 5 6 -7 8 9 -10 11 12 -13 -14 15 16 -17 -18 19 20 21 22 23 -24 25 26 27 28 -29 30 31 32 33 34 -35 -36 0
1 2 -3 -4 5 6 -7 8 9 -10 11 12 -13 -14 15 16 -17 -18 19 20 21 22 23 -24 -25 -26 27 28 -29 30 -31 -32 33 34 -35 -36 0
1 -2 3 4 5 6 -7 8 -9 10 11 12 -13 -14 15 16 -17 -18 19 20 21 22 23 -24 -25 -26 27 28 -29 30 -31 -32 33 34 -35 -36 0
1 -2 3 4 5 6 -7 8 -9 10 11 12 -13 -14 15 16 -17 -18 19 20 21 22 23 -24 25 26 27 28 -29 30 31 32 33 34 -35 -36 0
1 2 3 -4 -5 6 -7 8 -9 10 11 -12 -13 -14 15 16 -17 -18 19 20 21 22 23 24 25 26 27 28 -29 -30 31 32 33 34 -35 -36 0
1 2 3 -4 -5 6 -7 8 -9 10 11 -12 -13 -14 15 16 -17 -18 19 20 21 22 23 24 -25 -26 27 28 -29 -30 -31 -32 33 34 -35 -36 0
1 2 3 -4 -5 6 -7 8 -9 10 11 -12 -13 -14 15 16 -17 -18 19 20 21 22 23 24 -25 -26 27 28 29 30 -31 -32 33 34 35 36 0
1 2 3 -4 -5 6 7 8 -9 10 11 -12 13 -14 15 16 -17 -18 -19 20 21 22 23 24 -25 -26 27 28 -29 -30 31 32 33 34 -35 -36 0
1 2 3 -4 -5 6 7 8 -9 10 11 -12 13 -14 15 16 -17 -18 -19 20 21 22 23 24 -25 26 -27 28 29 30 31 -32 -33 34 35 36 0
1 -2 3 4 5 6 -7 8 -9 10 11 12 13 -14 15 16 -17 -18 19 20 21 22 23 -24 25 26 27 28 -29 30 31 32 33 34 -35 -36 0
-1 -2 3 4 5 6 -7 8 -9 10 11 12 13 -14 15 16 -17 -18 19 20 21 22 23 -24 25 26 27 28 -29 30 31 32 33 34 -35 -36 0
1 2 -3 -4 5 6 7 8 -9 10 11 -12 -13 -14 15 16 -17 -18 -19 20 21 22 23 24 25 26 -27 28 29 30 31 -32 -33 34 35 36 0
1 2 -3 -4 5 6 7 8 -9 10 11 -12 -13 -14 15 16 -17 -18 -19 20 21 22 23 24 25 -26 27 28 29 30 -31 -32 33 34 35 36 0
1 2 -3 -4 5 6 7 8 -9 10 11 -12 -13 -14 15 16 -17 -18 -19 20 21 22 23 24 25 -26 27 28 -29 -30 -31 -32 33 34 -35 -36 0
1 2 -3 -4 5 6 -7 8 9 -10 11 12 -13 -14 15 16 17 18 19 20 21 22 23 24 -25 -26 27 28 -29 -30 -31 -32 33 34 -35 -36 0
1 2 -3 -4 5 6 -7 8 9 -10 11 12 -13 -14 15 16 17 18 19 20 21 22 23 24 25 26 27 28 -29 -30 31 32 33 34 -35 -36 0
1 2 -3 4 -5 -6 7 8 -9 -10 11 -12 -13 -14 15 16 17 18 19 -20 21 22 23 24 -25 26 27 28 -29 -30 -31 -32 33 34 -35 -36 0
1 2 -3 4 -5 -6 7 8 -9 -10 11 -12 -13 -14 15 16 17 18 19 -20 21 22 23 24 -25 26 27 28 29 30 -31 -32 33 34 35 36 0
1 2 3 4 -5 -6 7 8 9 10 -11 -12 -13 -14 15 16 17 18 19 -20 21 22 23 24 -25 26 27 28 29 30 -31 -32 33 34 35 36 0
1 2 3 4 -5 -6 7 8 9 10 -11 -12 -13 -14 15 16 17 18 19 -20 21 22 23 24 -25 26 27 28 -29 -30 -31 -32 33 34 -35 -36 0
1 2 3 4 -5 -6 7 8 9 10 -11 -12 -13 -14 15 16 17 18 -19 -20 21 22 23 24 25 26 27 28 -29 -30 31 32 33 34 -35 -36 0
1 2 3 4 -5 -6 -7 -8 9 10 -11 -12 13 -14 15 16 17 18 -19 20 21 22 23 24 25 -26 -27 -28 29 30 31 32 33 -34 35 36 0
1 -2 -3 4 -5 -6 7 8 -9 10 -11 -12 13 -14 15 16 17 18 -19 20 21 22 23 24 -25 26 -27 28 29 30 31 -32 -33 34 35 36 0
1 2 3 -4 -5 6 7 8 -9 10 -11 12 13 -14 15 16 17 18 -19 20 21 22 23 24 -25 26 -27 28 -29 -30 31 -32 -33 34 -35 -36 0
1 -2 -3 4 -5 -6 7 8 -9 10 -11 -12 13 -14 15 16 17 18 -19 20 21 22 23 24 -25 26 -27 28 -29 -30 31 -32 -33 34 -35 -36 0
1 -2 -3 4 5 6 7 8 -9 10 11 12 13 -14 15 16 17 18 -19 20 21 22 23 24 -25 26 -27 28 -29 -30 31 -32 -33 34 -35 -36 0
1 -2 -3 4 -5 -6 7 8 -9 10 -11 -12 13 -14 15 16 17 18 -19 20 21 22 23 24 25 -26 -27 -28 29 30 31 32 33 -34 35 36 0
-1 -2 3 4 5 6 -7 8 -9 10 11 12 13 -14 15 16 17 18 19 20 21 22 23 24 25 26 -27 28 -29 -30 31 32 -33 -34 35 -36 0
1 -2 3 4 5 6 -7 8 -9 10 11 12 13 -14 15 16 17 18 19 20 21 22 23 24 25 26 -27 28 -29 -30 31 32 -33 -34 35 -36 0
1 -2 -3 4 5 6 -7 8 -9 10 11 12 13 -14 15 16 17 18 19 20 21 22 23 24 25 26 -27 28 -29 -30 31 32 -33 -34 35 -36 0
1 -2 -3 4 -5 -6 -7 8 -9 10 -11 -12 13 -14 15 16 17 18 19 20 21 22 23 24 25 26 -27 28 -29 -30 31 32 -33 -34 35 -36 0
1 2 3 4 -5 -6 7 8 9 10 -11 -12 -13 -14 15 16 17 18 -19 20 21 22 23 24 25 26 -27 28 -29 -30 31 -32 -33 34 -35 -36 0
1 2 3 4 -5 -6 7 8 9 10 -11 -12 -13 -14 15 16 17 18 -19 20 21 22 23 24 25 26 -27 28 29 30 31 -32 -33 34 35 36 0
1 2 -3 -4 5 -6 7 8 -9 10 -11 -12 -13 -14 15 16 17 18 -19 20 21 22 23 24 25 26 -27 28 29 30 31 -32 -33 34 35 36 0
1 2 -3 -4 5 -6 7 8 -9 10 -11 -12 -13 -14 15 16 17 18 -19 20 21 22 23 24 25 26 -27 28 -29 -30 31 -32 -33 34 -35 -36 0
1 2 3 4 -5 -6 7 8 9 10 -11 -12 -13 -14 15 16 17 18 -19 20 21 22 23 24 25 -26 27 28 29 30 -31 -32 33 34 35 36 0
1 2 3 4 -5 -6 -7 -8 9 10 -11 -12 -13 -14 15 16 17 18 19 20 21 22 23 24 -25 -26 27 28 29 30 -31 -32 33 34 35 36 0
-1 -2 3 4 -5 -6 -7 -8 9 10 -11 -12 13 14 15 16 17 18 19 20 21 22 23 24 -25 -26 27 28 29 30 -31 -32 33 34 35 36 0
1 2 3 4 -5 -6 7 8 9 10 -11 -12 13 14 15 16 17 18 19 20 21 22 23 24 -25 -26 27 28 29 30 -31 -32 33 34 35 36 0
1 2 3 4 -5 -6 7 8 9 10 -11 -12 13 14 15 16 17 18 19 20 21 22 23 24 -25 -26 27 28 -29 -30 -31 -32 33 34 -35 -36 0
-1 -2 3 4 -5 -6 -7 -8 9 10 -11 -12 13 14 15 16 17 18 19 20 21 22 23 24 -25 -26 27 28 -29 -30 -31 -32 33 34 -35 -36 0
-1 -2 3 4 -5 -6 -7 -8 9 10 -11 -12 13 14 15 16 17 18 19 20 21 22 23 24 25 26 27 28 -29 -30 31 32 33 34 -35 -36 0
-1 -2 3 4 5 6 -7 -8 9 10 11 12 13 14 15 16 17 18 19 20 21 22 23 24 -25 -26 27 28 -29 -30 -31 -32 33 34 -35 -36 0
-1 -2 3 4 5 6 -7 -8 9 10 11 12 13 14 15 16 17 18 19 20 21 22 23 24 25 26 27 28 -29 -30 31 32 33 34 -35 -36 0
-1 2 -3 -4 5 6 -7 -8 9 -10 11 12 13 14 15 16 17 18 19 20 21 22 23 24 25 26 27 28 -29 -30 31 32 33 34 -35 -36 0
-1 -2 3 -4 -5 6 -7 -8 9 -10 -11 12 13 14 15 16 17 18 19 20 21 22 23 24 25 26 27 28 -29 -30 31 32 33 34 -35 -36 0
-1 -2 3 -4 -5 6 -7 -8 9 -10 -11 12 13 14 15 16 17 18 19 20 21 22 23 24 -25 -26 27 28 -29 -30 -31 -32 33 34 -35 -36 0
1 2 3 -4 -5 6 7 8 9 -10 -11 12 13 14 15 16 17 18 19 20 21 22 23 24 -25 -26 27 28 -29 -30 -31 -32 33 34 -35 -36 0
-1 2 -3 -4 5 6 -7 -8 9 -10 11 12 13 14 15 16 17 18 19 20 21 22 23 24 -25 -26 27 28 -29 -30 -31 -32 33 34 -35 -36 0
1 2 3 -4 -5 6 7 8 9 -10 -11 12 13 14 15 16 17 18 19 -20 -21 -22 -23 24 -25 26 27 28 29 -30 -31 -32 33 34 -35 -36 0
1 -2 -3 4 -5 6 -7 8 9 -10 -11 12 -13 -14 15 16 17 18 19 20 -21 -22 -23 24 25 26 -27 28 29 -30 31 32 33 34 -35 -36 0
1 -2 -3 4 -5 6 -7 8 9 -10 -11 12 13 -14 15 16 17 18 19 20 -21 -22 -23 24 -25 26 -27 28 29 -30 -31 -32 33 34 -35 -36 0
1 2 -3 -4 5 6 7 8 9 -10 11 12 13 -14 15 16 17 18 -19 20 -21 -22 -23 -24 -25 26 -27 28 29 -30 31 -32 33 34 35 36 0
1 2 -3 -4 5 6 -7 8 9 -10 11 12 -13 -14 15 16 17 18 19 20 -21 -22 -23 -24 25 26 -27 28 29 -30 31 32 33 -34 -35 36 0
1 -2 -3 4 -5 6 -7 8 9 -10 -11 12 -13 -14 15 16 17 18 19 20 -21 -22 -23 24 25 26 -27 28 29 -30 31 32 33 -34 -35 36 0
-1 -2 3 -4 -5 6 7 -8 9 -10 -11 12 -13 14 15 16 17 18 -19 20 -21 -22 -23 24 25 -26 -27 28 29 -30 31 32 33 34 -35 -36 0
1 -2 -3 4 -5 6 -7 8 9 -10 -11 12 13 -14 15 16 17 18 19 20 -21 -22 23 -24 -25 26 -27 28 -29 -30 -31 -32 33 34 35 36 0
1 2 3 -4 5 6 7 -8 -9 -10 11 12 -13 14 15 16 17 18 -19 20 -21 -22 23 24 25 -26 -27 28 29 -30 31 32 33 34 -35 -36 0
-1 2 3 -4 5 6 -7 -8 -9 -10 11 12 13 14 15 16 17 18 19 20 -21 -22 -23 -24 25 26 -27 28 29 -30 31 32 33 -34 -35 36 0
-1 2 3 -4 5 6 -7 -8 -9 -10 11 12 13 14 15 16 17 18 19 20 -21 -22 23 24 25 26 -27 28 29 -30 31 32 33 34 -35 -36 0
1 2 3 -4 -5 6 7 8 -9 10 11 -12 13 -14 15 16 -17 -18 -19 20 -21 -22 23 24 -25 26 27 -28 29 30 31 -32 -33 34 35 36 0
1 2 -3 4 5 -6 7 8 -9 -10 -11 -12 13 14 15 16 17 18 19 20 -21 -22 23 24 -25 26 27 -28 29 30 -31 -32 33 34 35 36 0
1 2 -3 4 5 6 7 8 -9 -10 -11 12 13 14 15 16 17 -18 19 20 -21 -22 23 -24 -25 26 27 -28 -29 30 -31 -32 33 34 35 36 0
-1 2 3 -4 5 6 -7 -8 -9 -10 11 12 13 14 15 16 17 18 19 20 -21 -22 -23 -24 25 -26 27 28 29 -30 31 -32 -33 34 35 36 0
-1 2 3 -4 -5 6 -7 -8 -9 -10 11 -12 13 14 15 16 17 -18 19 20 -21 -22 -23 24 25 -26 27 28 29 30 31 -32 -33 34 35 36 0
1 -2 3 4 -5 6 7 -8 -9 -10 -11 12 13 14 15 16 17 18 19 -20 -21 -22 -23 24 -25 26 27 28 29 -30 -31 -32 33 34 -35 -36 0
1 -2 3 4 -5 6 7 -8 -9 -10 -11 12 13 14 15 16 17 18 19 20 21 -22 -23 24 -25 26 -27 28 29 -30 -31 -32 33 34 -35 -36 0
-1 -2 3 4 5 6 -7 -8 9 10 11 12 13 14 15 16 17 18 19 20 21 -22 -23 24 -25 26 -27 28 29 -30 -31 -32 33 34 -35 -36 0
1 2 3 -4 -5 6 7 8 9 -10 -11 12 13 14 15 16 17 18 19 20 21 -22 -23 24 -25 26 -27 28 29 -30 -31 -32 33 34 -35 -36 0
-1 -2 3 4 5 6 -7 -8 9 10 11 12 13 14 15 16 17 -18 19 20 21 -22 -23 -24 25 26 -27 28 29 30 31 32 -33 -34 35 36 0
-1 -2 3 4 5 6 -7 -8 9 10 11 12 13 14 15 16 17 18 19 20 21 -22 -23 24 25 26 -27 28 29 -30 31 32 33 -34 -35 36 0
1 -2 -3 4 5 -6 -7 8 -9 -10 -11 -12 -13 14 15 16 17 18 19 -20 -21 -22 23 24 25 26 27 28 -29 30 31 32 33 -34 -35 36 0
1 2 -3 4 5 -6 7 8 -9 -10 -11 -12 13 14 15 16 17 18 -19 -20 -21 -22 23 24 -25 26 27 28 -29 30 31 32 33 -34 -35 36 0
1 2 -3 4 5 -6 7 8 -9 -10 -11 -12 13 14 15 16 17 18 -19 -20 -21 -22 23 24 -25 26 27 -28 29 30 31 -32 -33 34 35 36 0
1 2 3 4 5 -6 7 8 9 -10 -11 -12 13 14 -15 16 17 18 19 -20 21 -22 23 24 -25 26 27 -28 29 30 31 -32 -33 34 35 36 0
1 2 3 4 5 -6 7 8 9 -10 -11 -12 -13 14 -15 16 17 18 -19 -20 21 -22 23 24 25 26 27 -28 29 30 31 32 33 -34 -35 36 0
1 2 3 4 5 -6 7 8 9 -10 -11 -12 13 14 -15 16 17 18 19 -20 21 -22 23 24 25 -26 27 -28 29 30 -31 -32 33 -34 -35 36 0
1 2 3 4 -5 6 7 8 9 -10 11 -12 13 14 15 16 -17 -18 19 20 21 22 23 24 -25 -26 27 28 29 30 -31 -32 33 34 35 36 0
1 2 3 4 -5 6 7 8 9 -10 11 -12 13 14 15 16 -17 18 19 20 21 22 23 24 -25 -26 27 28 29 30 -31 -32 33 34 35 36 0
1 2 3 4 -5 -6 7 8 9 -10 11 -12 13 14 15 16 -17 18 19 20 21 22 23 24 -25 -26 27 28 29 30 -31 -32 33 34 35 36 0
1 2 3 4 -5 6 7 8 9 -10 11 -12 13 14 15 16 -17 -18 19 20 21 22 23 24 -25 -26 27 28 -29 -30 -31 -32 33 34 -35 -36 0
-1 -2 3 4 5 6 -7 -8 9 10 -11 -12 13 14 15 16 -17 -18 19 20 21 22 23 24 25 -26 -27 28 29 30 31 -32 -33 34 35 36 0
-1 -2 3 4 -5 -6 -7 -8 9 10 -11 -12 13 14 15 16 17 18 19 20 21 22 23 24 25 -26 -27 28 29 30 31 -32 -33 34 35 36 0
-1 -2 3 4 -5 -6 -7 -8 9 10 -11 -12 13 14 15 16 17 18 19 20 21 22 23 24 25 -26 -27 28 -29 30 31 -32 33 -34 -35 36 0
-1 -2 3 4 -5 -6 -7 -8 9 10 -11 -12 13 14 15 16 17 18 19 20 21 22 23 24 25 -26 -27 28 -29 -30 31 -32 -33 34 -35 -36 0
-1 -2 3 4 5 6 -7 -8 9 10 11 12 13 14 15 16 17 18 19 20 21 22 23 24 25 -26 -27 28 -29 -30 31 -32 -33 34 -35 -36 0
-1 -2 3 4 5 6 -7 -8 9 10 11 12 13 14 15 16 17 18 19 20 21 22 23 24 25 26 -27 28 -29 -30 31 32 -33 -34 35 -36 0
-1 -2 3 4 -5 -6 -7 -8 9 10 -11 -12 13 14 15 16 17 18 19 20 21 22 23 24 25 26 -27 28 -29 -30 31 32 -33 -34 35 -36 0
-1 -2 3 4 -5 -6 -7 -8 9 10 -11 -12 13 14 15 16 17 18 19 20 21 22 23 24 -25 26 -27 -28 29 30 -31 -32 33 -34 35 36 0
1 2 3 4 -5 -6 7 8 9 10 -11 -12 13 14 15 16 17 18 19 20 21 22 23 24 -25 26 -27 -28 29 30 -31 -32 33 -34 35 36 0
1 2 3 4 -5 -6 7 8 9 10 -11 -12 -13 -14 15 16 17 18 -19 20 21 22 23 24 25 -26 -27 -28 29 30 31 32 33 -34 35 36 0
1 -2 -3 4 -5 -6 -7 8 -9 10 -11 -12 -13 -14 15 16 17 18 19 20 21 22 23 24 -25 -26 -27 -28 29 30 -31 32 33 -34 35 36 0
1 2 -3 -4 5 -6 7 8 -9 10 -11 -12 -13 -14 15 16 17 18 -19 20 21 22 23 24 25 -26 -27 -28 29 30 31 32 33 -34 35 36 0
1 2 3 4 -5 -6 -7 -8 9 10 -11 -12 -13 -14 15 16 17 18 19 20 21 22 23 24 -25 -26 -27 -28 29 30 -31 32 33 -34 35 36 0
-1 -2 3 4 -5 -6 -7 -8 9 10 -11 -12 13 14 15 16 17 18 19 20 21 22 23 24 25 26 -27 -28 29 -30 31 32 -33 34 -35 -36 0
-1 -2 3 4 5 6 -7 -8 9 10 11 12 13 14 15 16 17 18 19 20 21 22 23 24 25 26 -27 -28 29 -30 31 32 -33 34 -35 -36 0
-1 -2 3 4 -5 -6 -7 -8 9 10 -11 -12 13 14 15 16 17 18 19 20 21 22 23 24 25 26 -27 -28 29 30 31 32 -33 -34 35 36 0
-1 -2 3 4 -5 -6 -7 8 9 -10 11 -12 13 -14 15 -16 -17 18 -19 -20 21 22 23 24 25 26 -27 -28 29 -30 31 32 -33 34 -35 -36 0
-1 -2 3 4 -5 6 -7 8 9 -10 11 -12 13 -14 15 -16 -17 18 -19 -20 21 22 23 24 25 26 -27 -28 29 -30 31 32 -33 34 -35 -36 0
1 2 3 4 -5 6 -7 -8 9 -10 11 -12 13 -14 15 -16 -17 18 19 -20 21 22 23 24 25 26 -27 -28 -29 30 31 32 33 34 -35 36 0
1 2 3 4 -5 -6 -7 -8 9 -10 11 -12 13 -14 15 -16 -17 18 19 -20 21 22 23 24 25 26 -27 -28 -29 30 31 32 33 34 -35 36 0
-1 -2 3 4 -5 6 -7 8 9 -10 11 -12 13 -14 15 -16 -17 18 -19 -20 21 22 23 24 -25 26 27 -28 -29 30 31 -32 -33 34 -35 36 0
-1 -2 3 4 -5 -6 -7 8 9 -10 11 -12 13 -14 15 -16 -17 18 -19 -20 21 22 23 24 -25 26 27 -28 -29 30 31 -32 -33 34 -35 36 0
1 2 3 -4 -5 6 7 8 9 -10 11 -12 -13 -14 15 -16 17 -18 -19 20 21 -22 -23 24 25 26 -27 28 29 30 31 -32 -33 34 35 36 0
1 2 3 4 -5 6 -7 -8 9 -10 11 -12 13 -14 15 -16 17 -18 -19 20 21 -22 -23 24 -25 26 -27 28 29 30 31 -32 -33 34 35 36 0
1 2 3 -4 -5 6 7 8 -9 10 11 -12 13 -14 15 -16 17 -18 -19 20 21 -22 -23 24 -25 26 -27 28 29 30 31 -32 -33 34 35 36 0
1 2 3 4 -5 -6 -7 -8 9 -10 11 -12 -13 -14 15 -16 17 18 19 20 21 -22 -23 24 -25 -26 27 28 -29 30 -31 32 -33 -34 35 36 0
1 2 3 4 -5 -6 -7 -8 9 -10 11 -12 -13 -14 15 -16 17 18 19 20 21 -22 -23 24 -25 -26 -27 28 29 -30 -31 32 33 34 -35 -36 0
1 -2 -3 4 5 6 -7 8 9 -10 11 12 -13 -14 15 -16 17 18 19 20 21 -22 -23 24 -25 -26 -27 28 29 -30 -31 32 33 34 -35 -36 0
1 2 3 -4 -5 6 7 8 9 -10 11 12 -13 -14 15 -16 17 18 -19 20 21 -22 -23 24 25 -26 -27 28 29 -30 31 32 33 34 -35 -36 0
1 2 3 4 -5 -6 -7 -8 9 -10 11 -12 13 -14 15 -16 17 18 -19 20 21 -22 -23 24 -25 26 -27 28 29 -30 31 -32 33 34 -35 -36 0
1 2 3 4 -5 -6 -7 -8 9 -10 11 -12 13 -14 15 -16 17 18 -19 20 21 -22 -23 24 25 -26 -27 28 29 -30 31 32 33 34 -35 -36 0
1 2 3 4 -5 -6 -7 -8 9 -10 11 -12 13 -14 15 -16 17 18 -19 20 21 -22 -23 24 -25 26 -27 28 29 30 31 -32 -33 34 35 36 0
1 2 3 -4 -5 6 7 8 9 -10 11 12 -13 -14 15 -16 17 18 -19 20 21 -22 -23 24 25 26 -27 28 29 -30 31 32 33 -34 -35 36 0
1 2 3 -4 -5 6 -7 -8 9 10 -11 12 13 -14 15 -16 17 18 -19 20 21 -22 -23 24 -25 26 -27 28 29 -30 31 -32 33 34 -35 -36 0
1 2 3 -4 -5 6 -7 -8 9 10 -11 12 13 -14 15 -16 17 18 -19 20 21 -22 -23 24 25 -26 -27 28 29 -30 31 32 33 34 -35 -36 0
1 2 3 -4 -5 6 -7 -8 9 10 -11 12 -13 -14 15 -16 17 18 19 20 21 -22 -23 24 -25 -26 -27 28 29 -30 -31 32 33 34 -35 -36 0
1 2 3 4 -5 -6 -7 -8 9 10 11 -12 -13 14 15 -16 17 18 19 -20 21 -22 -23 24 25 26 -27 28 29 -30 31 32 33 34 -35 -36 0
1 2 3 4 -5 -6 -7 -8 9 10 11 -12 -13 14 15 -16 17 18 19 -20 21 -22 -23 24 25 26 -27 28 29 -30 31 32 33 -34 -35 36 0
-1 2 -3 -4 5 6 -7 -8 9 10 -11 12 13 14 15 -16 17 18 -19 -20 21 -22 -23 24 -25 26 -27 28 29 -30 31 32 33 -34 -35 36 0
-1 2 -3 -4 5 6 -7 -8 9 10 -11 12 13 14 15 -16 17 18 -19 -20 21 -22 -23 24 -25 26 -27 28 29 -30 31 32 33 34 -35 -36 0
-1 2 -3 -4 5 6 -7 -8 9 10 -11 12 13 14 15 -16 17 18 -19 -20 21 -22 -23 24 -25 26 -27 28 29 -30 31 -32 33 34 -35 -36 0
-1 2 -3 4 5 6 -7 -8 9 -10 11 12 13 14 15 -16 17 18 -19 -20 21 -22 -23 24 -25 26 -27 28 29 -30 31 32 33 -34 -35 36 0
-1 -2 3 -4 -5 6 -7 -8 9 -10 11 12 13 14 15 -16 17 18 -19 -20 21 -22 -23 24 -25 26 -27 28 29 -30 31 32 33 -34 -35 36 0
1 -2 -3 4 5 6 7 -8 9 -10 11 12 13 14 15 -16 17 18 19 -20 21 -22 -23 24 -25 26 -27 28 29 -30 31 -32 33 34 -35 -36 0
1 -2 -3 4 5 6 7 -8 9 -10 11 12 13 14 15 -16 17 18 19 -20 21 -22 -23 24 -25 26 -27 28 29 -30 -31 -32 33 34 -35 -36 0
-1 2 -3 4 5 6 -7 -8 9 -10 11 12 13 14 15 -16 17 18 -19 -20 21 -22 -23 24 -25 26 -27 28 29 -30 31 -32 33 34 -35 -36 0
-1 2 -3 4 5 6 -7 -8 9 -10 11 12 13 14 15 -16 17 18 -19 -20 21 -22 -23 24 -25 26 -27 28 29 -30 31 32 33 34 -35 -36 0
-1 -2 3 -4 -5 6 -7 -8 9 -10 11 12 13 14 15 -16 17 18 -19 -20 21 -22 -23 24 -25 26 -27 28 29 -30 31 32 33 34 -35 -36 0
-1 -2 3 -4 -5 6 -7 -8 9 -10 11 12 13 14 15 -16 17 18 -19 -20 21 -22 -23 24 -25 26 -27 28 29 -30 31 -32 33 34 -35 -36 0
-1 2 -3 -4 5 6 -7 -8 9 10 -11 12 13 14 15 -16 17 -18 -19 -20 21 -22 23 -24 -25 26 -27 28 -29 30 31 32 33 -34 35 36 0
1 2 3 -4 -5 6 -7 -8 9 10 -11 12 13 -14 15 -16 17 18 19 -20 21 -22 -23 24 25 26 -27 28 29 -30 31 32 33 34 -35 -36 0
1 2 3 -4 -5 6 -7 -8 9 10 -11 12 13 -14 15 -16 17 18 19 -20 21 -22 -23 24 25 26 -27 28 29 -30 31 32 33 -34 -35 36 0
-1 -2 3 4 5 6 7 -8 9 10 -11 -12 13 -14 15 -16 17 -18 -19 -20 21 -22 23 24 -25 26 27 -28 29 30 31 -32 -33 34 35 36 0
-1 -2 3 4 5 6 7 -8 9 10 -11 -12 13 -14 15 -16 17 -18 -19 -20 21 -22 23 24 25 26 27 -28 29 30 31 32 33 -34 -35 36 0
-1 -2 3 4 5 6 7 -8 9 10 11 12 13 -14 15 -16 -17 18 -19 -20 21 -22 23 -24 25 26 27 -28 29 -30 31 32 33 -34 -35 36 0
-1 -2 3 4 5 6 7 -8 9 10 11 12 13 -14 15 -16 -17 18 -19 -20 21 -22 23 24 25 26 27 28 29 -30 31 32 33 34 -35 -36 0
1 2 3 4 -5 -6 -7 -8 9 10 11 -12 13 -14 15 16 -17 18 19 -20 21 -22 23 24 -25 -26 27 -28 29 -30 31 32 33 34 -35 -36 0
1 2 3 4 -5 -6 7 8 9 10 11 -12 13 14 15 16 -17 18 -19 -20 21 -22 23 24 -25 -26 27 -28 29 -30 31 32 33 34 -35 -36 0
-1 -2 3 4 -5 -6 -7 -8 9 10 11 -12 13 14 15 16 -17 18 19 20 21 -22 23 24 25 26 27 -28 29 -30 31 32 33 34 -35 -36 0
-1 -2 3 4 5 6 -7 -8 9 10 11 12 13 14 15 16 -17 18 19 20 21 -22 23 -24 25 26 27 -28 29 -30 31 32 33 34 -35 36 0
1 2 -3 -4 5 6 7 -8 9 10 -11 12 13 -14 15 -16 -17 18 -19 -20 21 -22 23 24 25 26 27 28 29 -30 31 32 33 34 -35 -36 0
-1 2 -3 -4 5 6 -7 -8 9 10 -11 12 13 14 15 -16 -17 18 -19 -20 21 -22 23 24 -25 -26 27 -28 29 -30 31 32 33 34 -35 -36 0
-1 -2 3 4 5 6 -7 -8 9 10 11 12 13 14 15 16 -17 -18 19 20 21 -22 23 -24 25 26 27 -28 29 30 31 32 -33 -34 35 36 0
1 2 3 4 -5 -6 -7 -8 9 -10 11 -12 13 -14 15 -16 17 18 19 -20 21 -22 -23 24 25 26 -27 28 29 -30 31 32 33 34 -35 -36 0
1 2 3 4 -5 -6 -7 -8 9 -10 11 -12 13 -14 15 -16 17 18 19 -20 21 -22 -23 24 25 26 -27 28 29 -30 31 32 33 -34 -35 36 0
1 -2 3 -4 5 6 7 -8 -9 10 -11 12 13 14 15 16 -17 18 19 -20 -21 -22 23 24 -25 26 27 -28 29 -30 -31 -32 33 34 -35 -36 0
1 -2 3 -4 -5 6 7 -8 -9 10 11 -12 13 14 15 16 -17 18 19 -20 -21 -22 23 24 -25 26 27 -28 29 -30 -31 -32 33 34 -35 -36 0
-1 -2 3 4 5 6 -7 8 9 -10 -11 12 13 -14 15 -16 17 -18 -19 -20 21 22 23 -24 25 26 -27 -28 -29 30 31 32 -33 34 35 36 0
1 -2 -3 4 -5 -6 -7 8 -9 10 -11 12 -13 14 -15 16 17 -18 19 -20 21 -22 23 -24 25 26 -27 28 -29 30 31 32 33 -34 35 36 0
