p cnf 30 3331
-1 -2 -3 0
-2 -3 -4 0
-3 -4 -5 0
1 -2 -6 -7 0
-1 2 6 7 0
-1 2 6 -7 0
-1 2 -6 7 0
-1 -2 6 7 0
1 2 3 -6 -7 -8 0
1 2 -3 6 -7 -8 0
1 2 -3 -6 7 -8 0
1 2 -3 -6 -7 8 0
1 -2 3 6 7 8 0
1 -2 3 6 7 -8 0
1 -2 3 6 -7 8 0
1 -2 3 -6 7 8 0
1 -2 -3 6 7 8 0
1 -2 -3 -6 -7 -8 0
-1 2 3 6 -7 -8 0
-1 2 3 -6 7 -8 0
-1 2 3 -6 -7 8 0
-1 2 -3 6 7 -8 0
-1 2 -3 6 -7 8 0
-1 2 -3 -6 7 8 0
-1 -2 3 6 7 8 0
-1 -2 3 -6 -7 -8 0
-1 -2 -3 6 -7 -8 0
-1 -2 -3 -6 7 -8 0
-1 -2 -3 -6 -7 8 0
-1 -2 -3 -6 -7 -8 0
2 3 4 -7 -8 -9 0
2 3 -4 7 -8 -9 0
2 3 -4 -7 8 -9 0
2 3 -4 -7 -8 9 0
2 -3 4 7 8 9 0
2 -3 4 7 8 -9 0
2 -3 4 7 -8 9 0
2 -3 4 -7 8 9 0
2 -3 -4 7 8 9 0
2 -3 -4 -7 -8 -9 0
-2 3 4 7 -8 -9 0
-2 3 4 -7 8 -9 0
-2 3 4 -7 -8 9 0
-2 3 -4 7 8 -9 0
-2 3 -4 7 -8 9 0
-2 3 -4 -7 8 9 0
-2 -3 4 7 8 9 0
-2 -3 4 -7 -8 -9 0
-2 -3 -4 7 -8 -9 0
-2 -3 -4 -7 8 -9 0
-2 -3 -4 -7 -8 9 0
-2 -3 -4 -7 -8 -9 0
3 4 5 -8 -9 -10 0
3 4 -5 8 -9 -10 0
3 4 -5 -8 9 -10 0
3 4 -5 -8 -9 10 0
3 -4 5 8 9 10 0
3 -4 5 8 9 -10 0
3 -4 5 8 -9 10 0
3 -4 5 -8 9 10 0
3 -4 -5 8 9 10 0
3 -4 -5 -8 -9 -10 0
-3 4 5 8 -9 -10 0
-3 4 5 -8 9 -10 0
-3 4 5 -8 -9 10 0
-3 4 -5 8 9 -10 0
-3 4 -5 8 -9 10 0
-3 4 -5 -8 9 10 0
-3 -4 5 8 9 10 0
-3 -4 5 -8 -9 -10 0
-3 -4 -5 8 -9 -10 0
-3 -4 -5 -8 9 -10 0
-3 -4 -5 -8 -9 10 0
-3 -4 -5 -8 -9 -10 0
4 -5 9 10 0
4 -5 9 -10 0
4 -5 -9 10 0
-4 5 -9 -10 0
-4 -5 9 10 0
-1 -6 -11 0
1 2 6 -7 -11 -12 0
1 2 -6 7 11 12 0
1 2 -6 7 11 -12 0
1 2 -6 7 -11 12 0
1 2 -6 -7 11 12 0
1 -2 6 7 -11 -12 0
1 -2 6 -7 11 -12 0
1 -2 6 -7 -11 12 0
1 -2 -6 7 11 12 0
1 -2 -6 -7 -11 -12 0
-1 2 6 7 -11 -12 0
-1 2 6 -7 11 -12 0
-1 2 6 -7 -11 12 0
-1 2 -6 7 11 12 0
-1 2 -6 -7 -11 -12 0
-1 -2 6 7 11 -12 0
-1 -2 6 7 -11 12 0
-1 -2 6 -7 11 12 0
-1 -2 -6 7 -11 -12 0
-1 -2 -6 -7 11 -12 0
-1 -2 -6 -7 -11 12 0
-1 -2 -6 -7 -11 -12 0
1 2 3 6 7 8 -11 -12 -13 0
1 2 3 6 7 -8 11 -12 -13 0
1 2 3 6 7 -8 -11 12 -13 0
1 2 3 6 7 -8 -11 -12 13 0
1 2 3 6 -7 8 11 12 13 0
1 2 3 6 -7 8 11 12 -13 0
1 2 3 6 -7 8 11 -12 13 0
1 2 3 6 -7 8 -11 12 13 0
1 2 3 6 -7 -8 11 12 13 0
1 2 3 6 -7 -8 -11 -12 -13 0
1 2 3 -6 7 8 11 -12 -13 0
1 2 3 -6 7 8 -11 12 -13 0
1 2 3 -6 7 8 -11 -12 13 0
1 2 3 -6 7 -8 11 12 -13 0
1 2 3 -6 7 -8 11 -12 13 0
1 2 3 -6 7 -8 -11 12 13 0
1 2 3 -6 -7 8 11 12 13 0
1 2 3 -6 -7 8 -11 -12 -13 0
1 2 3 -6 -7 -8 11 -12 -13 0
1 2 3 -6 -7 -8 -11 12 -13 0
1 2 3 -6 -7 -8 -11 -12 13 0
1 2 3 -6 -7 -8 -11 -12 -13 0
1 2 -3 6 7 8 11 -12 -13 0
1 2 -3 6 7 8 -11 12 -13 0
1 2 -3 6 7 8 -11 -12 13 0
1 2 -3 6 7 -8 11 12 -13 0
1 2 -3 6 7 -8 11 -12 13 0
1 2 -3 6 7 -8 -11 12 13 0
1 2 -3 6 -7 8 11 12 13 0
1 2 -3 6 -7 8 -11 -12 -13 0
1 2 -3 6 -7 -8 11 -12 -13 0
1 2 -3 6 -7 -8 -11 12 -13 0
1 2 -3 6 -7 -8 -11 -12 13 0
1 2 -3 6 -7 -8 -11 -12 -13 0
1 2 -3 -6 7 8 11 12 -13 0
1 2 -3 -6 7 8 11 -12 13 0
1 2 -3 -6 7 8 -11 12 13 0
1 2 -3 -6 7 -8 11 12 13 0
1 2 -3 -6 -7 8 11 -12 -13 0
1 2 -3 -6 -7 8 -11 12 -13 0
1 2 -3 -6 -7 8 -11 -12 13 0
1 2 -3 -6 -7 8 -11 -12 -13 0
1 2 -3 -6 -7 -8 11 12 -13 0
1 2 -3 -6 -7 -8 11 -12 13 0
1 2 -3 -6 -7 -8 11 -12 -13 0
1 2 -3 -6 -7 -8 -11 12 13 0
1 2 -3 -6 -7 -8 -11 12 -13 0
1 2 -3 -6 -7 -8 -11 -12 13 0
1 2 -3 -6 -7 -8 -11 -12 -13 0
1 -2 3 6 7 8 11 -12 -13 0
1 -2 3 6 7 8 -11 12 -13 0
1 -2 3 6 7 8 -11 -12 13 0
1 -2 3 6 7 -8 11 12 -13 0
1 -2 3 6 7 -8 11 -12 13 0
1 -2 3 6 7 -8 -11 12 13 0
1 -2 3 6 -7 8 11 12 13 0
1 -2 3 6 -7 8 -11 -12 -13 0
1 -2 3 6 -7 -8 11 -12 -13 0
1 -2 3 6 -7 -8 -11 12 -13 0
1 -2 3 6 -7 -8 -11 -12 13 0
1 -2 3 6 -7 -8 -11 -12 -13 0
1 -2 3 -6 7 8 11 12 -13 0
1 -2 3 -6 7 8 11 -12 13 0
1 -2 3 -6 7 8 -11 12 13 0
1 -2 3 -6 7 -8 11 12 13 0
1 -2 3 -6 -7 8 11 -12 -13 0
1 -2 3 -6 -7 8 -11 12 -13 0
1 -2 3 -6 -7 8 -11 -12 13 0
1 -2 3 -6 -7 8 -11 -12 -13 0
1 -2 3 -6 -7 -8 11 12 -13 0
1 -2 3 -6 -7 -8 11 -12 13 0
1 -2 3 -6 -7 -8 11 -12 -13 0
1 -2 3 -6 -7 -8 -11 12 13 0
1 -2 3 -6 -7 -8 -11 12 -13 0
1 -2 3 -6 -7 -8 -11 -12 13 0
1 -2 3 -6 -7 -8 -11 -12 -13 0
1 -2 -3 6 7 8 11 12 -13 0
1 -2 -3 6 7 8 11 -12 13 0
1 -2 -3 6 7 8 -11 12 13 0
1 -2 -3 6 7 -8 11 12 13 0
1 -2 -3 6 -7 8 11 -12 -13 0
1 -2 -3 6 -7 8 -11 12 -13 0
1 -2 -3 6 -7 8 -11 -12 13 0
1 -2 -3 6 -7 8 -11 -12 -13 0
1 -2 -3 6 -7 -8 11 12 -13 0
1 -2 -3 6 -7 -8 11 -12 13 0
1 -2 -3 6 -7 -8 11 -12 -13 0
1 -2 -3 6 -7 -8 -11 12 13 0
1 -2 -3 6 -7 -8 -11 12 -13 0
1 -2 -3 6 -7 -8 -11 -12 13 0
1 -2 -3 6 -7 -8 -11 -12 -13 0
1 -2 -3 -6 7 8 11 12 13 0
1 -2 -3 -6 -7 8 11 12 -13 0
1 -2 -3 -6 -7 8 11 -12 13 0
1 -2 -3 -6 -7 8 11 -12 -13 0
1 -2 -3 -6 -7 8 -11 12 13 0
1 -2 -3 -6 -7 8 -11 12 -13 0
1 -2 -3 -6 -7 8 -11 -12 13 0
1 -2 -3 -6 -7 8 -11 -12 -13 0
1 -2 -3 -6 -7 -8 11 12 13 0
1 -2 -3 -6 -7 -8 11 12 -13 0
1 -2 -3 -6 -7 -8 11 -12 13 0
1 -2 -3 -6 -7 -8 11 -12 -13 0
1 -2 -3 -6 -7 -8 -11 12 13 0
1 -2 -3 -6 -7 -8 -11 12 -13 0
1 -2 -3 -6 -7 -8 -11 -12 13 0
1 -2 -3 -6 -7 -8 -11 -12 -13 0
-1 2 3 6 7 8 11 -12 -13 0
-1 2 3 6 7 8 -11 12 -13 0
-1 2 3 6 7 8 -11 -12 13 0
-1 2 3 6 7 -8 11 12 -13 0
-1 2 3 6 7 -8 11 -12 13 0
-1 2 3 6 7 -8 -11 12 13 0
-1 2 3 6 -7 8 11 12 13 0
-1 2 3 6 -7 8 -11 -12 -13 0
-1 2 3 6 -7 -8 11 -12 -13 0
-1 2 3 6 -7 -8 -11 12 -13 0
-1 2 3 6 -7 -8 -11 -12 13 0
-1 2 3 6 -7 -8 -11 -12 -13 0
-1 2 3 -6 7 8 11 12 -13 0
-1 2 3 -6 7 8 11 -12 13 0
-1 2 3 -6 7 8 -11 12 13 0
-1 2 3 -6 7 -8 11 12 13 0
-1 2 3 -6 -7 8 11 -12 -13 0
-1 2 3 -6 -7 8 -11 12 -13 0
-1 2 3 -6 -7 8 -11 -12 13 0
-1 2 3 -6 -7 8 -11 -12 -13 0
-1 2 3 -6 -7 -8 11 12 -13 0
-1 2 3 -6 -7 -8 11 -12 13 0
-1 2 3 -6 -7 -8 11 -12 -13 0
-1 2 3 -6 -7 -8 -11 12 13 0
-1 2 3 -6 -7 -8 -11 12 -13 0
-1 2 3 -6 -7 -8 -11 -12 13 0
-1 2 3 -6 -7 -8 -11 -12 -13 0
-1 2 -3 6 7 8 11 12 -13 0
-1 2 -3 6 7 8 11 -12 13 0
-1 2 -3 6 7 8 -11 12 13 0
-1 2 -3 6 7 -8 11 12 13 0
-1 2 -3 6 -7 8 11 -12 -13 0
-1 2 -3 6 -7 8 -11 12 -13 0
-1 2 -3 6 -7 8 -11 -12 13 0
-1 2 -3 6 -7 8 -11 -12 -13 0
-1 2 -3 6 -7 -8 11 12 -13 0
-1 2 -3 6 -7 -8 11 -12 13 0
-1 2 -3 6 -7 -8 11 -12 -13 0
-1 2 -3 6 -7 -8 -11 12 13 0
-1 2 -3 6 -7 -8 -11 12 -13 0
-1 2 -3 6 -7 -8 -11 -12 13 0
-1 2 -3 6 -7 -8 -11 -12 -13 0
-1 2 -3 -6 7 8 11 12 13 0
-1 2 -3 -6 -7 8 11 12 -13 0
-1 2 -3 -6 -7 8 11 -12 13 0
-1 2 -3 -6 -7 8 11 -12 -13 0
-1 2 -3 -6 -7 8 -11 12 13 0
-1 2 -3 -6 -7 8 -11 12 -13 0
-1 2 -3 -6 -7 8 -11 -12 13 0
-1 2 -3 -6 -7 8 -11 -12 -13 0
-1 2 -3 -6 -7 -8 11 12 13 0
-1 2 -3 -6 -7 -8 11 12 -13 0
-1 2 -3 -6 -7 -8 11 -12 13 0
-1 2 -3 -6 -7 -8 11 -12 -13 0
-1 2 -3 -6 -7 -8 -11 12 13 0
-1 2 -3 -6 -7 -8 -11 12 -13 0
-1 2 -3 -6 -7 -8 -11 -12 13 0
-1 2 -3 -6 -7 -8 -11 -12 -13 0
-1 -2 3 6 7 8 11 12 -13 0
-1 -2 3 6 7 8 11 -12 13 0
-1 -2 3 6 7 8 -11 12 13 0
-1 -2 3 6 7 -8 11 12 13 0
-1 -2 3 6 -7 8 11 -12 -13 0
-1 -2 3 6 -7 8 -11 12 -13 0
-1 -2 3 6 -7 8 -11 -12 13 0
-1 -2 3 6 -7 8 -11 -12 -13 0
-1 -2 3 6 -7 -8 11 12 -13 0
-1 -2 3 6 -7 -8 11 -12 13 0
-1 -2 3 6 -7 -8 11 -12 -13 0
-1 -2 3 6 -7 -8 -11 12 13 0
-1 -2 3 6 -7 -8 -11 12 -13 0
-1 -2 3 6 -7 -8 -11 -12 13 0
-1 -2 3 6 -7 -8 -11 -12 -13 0
-1 -2 3 -6 7 8 11 12 13 0
-1 -2 3 -6 -7 8 11 12 -13 0
-1 -2 3 -6 -7 8 11 -12 13 0
-1 -2 3 -6 -7 8 11 -12 -13 0
-1 -2 3 -6 -7 8 -11 12 13 0
-1 -2 3 -6 -7 8 -11 12 -13 0
-1 -2 3 -6 -7 8 -11 -12 13 0
-1 -2 3 -6 -7 8 -11 -12 -13 0
-1 -2 3 -6 -7 -8 11 12 13 0
-1 -2 3 -6 -7 -8 11 12 -13 0
-1 -2 3 -6 -7 -8 11 -12 13 0
-1 -2 3 -6 -7 -8 11 -12 -13 0
-1 -2 3 -6 -7 -8 -11 12 13 0
-1 -2 3 -6 -7 -8 -11 12 -13 0
-1 -2 3 -6 -7 -8 -11 -12 13 0
-1 -2 3 -6 -7 -8 -11 -12 -13 0
-1 -2 -3 6 7 8 11 12 13 0
-1 -2 -3 6 -7 8 11 12 -13 0
-1 -2 -3 6 -7 8 11 -12 13 0
-1 -2 -3 6 -7 8 11 -12 -13 0
-1 -2 -3 6 -7 8 -11 12 13 0
-1 -2 -3 6 -7 8 -11 12 -13 0
-1 -2 -3 6 -7 8 -11 -12 13 0
-1 -2 -3 6 -7 8 -11 -12 -13 0
-1 -2 -3 6 -7 -8 11 12 13 0
-1 -2 -3 6 -7 -8 11 12 -13 0
-1 -2 -3 6 -7 -8 11 -12 13 0
-1 -2 -3 6 -7 -8 11 -12 -13 0
-1 -2 -3 6 -7 -8 -11 12 13 0
-1 -2 -3 6 -7 -8 -11 12 -13 0
-1 -2 -3 6 -7 -8 -11 -12 13 0
-1 -2 -3 6 -7 -8 -11 -12 -13 0
-1 -2 -3 -6 -7 8 11 12 13 0
-1 -2 -3 -6 -7 8 11 12 -13 0
-1 -2 -3 -6 -7 8 11 -12 13 0
-1 -2 -3 -6 -7 8 11 -12 -13 0
-1 -2 -3 -6 -7 8 -11 12 13 0
-1 -2 -3 -6 -7 8 -11 12 -13 0
-1 -2 -3 -6 -7 8 -11 -12 13 0
-1 -2 -3 -6 -7 8 -11 -12 -13 0
-1 -2 -3 -6 -7 -8 11 12 13 0
-1 -2 -3 -6 -7 -8 11 12 -13 0
-1 -2 -3 -6 -7 -8 11 -12 13 0
-1 -2 -3 -6 -7 -8 11 -12 -13 0
-1 -2 -3 -6 -7 -8 -11 12 13 0
-1 -2 -3 -6 -7 -8 -11 12 -13 0
-1 -2 -3 -6 -7 -8 -11 -12 13 0
-1 -2 -3 -6 -7 -8 -11 -12 -13 0
2 3 4 7 8 9 -12 -13 -14 0
2 3 4 7 8 -9 12 -13 -14 0
2 3 4 7 8 -9 -12 13 -14 0
2 3 4 7 8 -9 -12 -13 14 0
2 3 4 7 -8 9 12 13 14 0
2 3 4 7 -8 9 12 13 -14 0
2 3 4 7 -8 9 12 -13 14 0
2 3 4 7 -8 9 -12 13 14 0
2 3 4 7 -8 -9 12 13 14 0
2 3 4 7 -8 -9 -12 -13 -14 0
2 3 4 -7 8 9 12 -13 -14 0
2 3 4 -7 8 9 -12 13 -14 0
2 3 4 -7 8 9 -12 -13 14 0
2 3 4 -7 8 -9 12 13 -14 0
2 3 4 -7 8 -9 12 -13 14 0
2 3 4 -7 8 -9 -12 13 14 0
2 3 4 -7 -8 9 12 13 14 0
2 3 4 -7 -8 9 -12 -13 -14 0
2 3 4 -7 -8 -9 12 -13 -14 0
2 3 4 -7 -8 -9 -12 13 -14 0
2 3 4 -7 -8 -9 -12 -13 14 0
2 3 4 -7 -8 -9 -12 -13 -14 0
2 3 -4 7 8 9 12 -13 -14 0
2 3 -4 7 8 9 -12 13 -14 0
2 3 -4 7 8 9 -12 -13 14 0
2 3 -4 7 8 -9 12 13 -14 0
2 3 -4 7 8 -9 12 -13 14 0
2 3 -4 7 8 -9 -12 13 14 0
2 3 -4 7 -8 9 12 13 14 0
2 3 -4 7 -8 9 -12 -13 -14 0
2 3 -4 7 -8 -9 12 -13 -14 0
2 3 -4 7 -8 -9 -12 13 -14 0
2 3 -4 7 -8 -9 -12 -13 14 0
2 3 -4 7 -8 -9 -12 -13 -14 0
2 3 -4 -7 8 9 12 13 -14 0
2 3 -4 -7 8 9 12 -13 14 0
2 3 -4 -7 8 9 -12 13 14 0
2 3 -4 -7 8 -9 12 13 14 0
2 3 -4 -7 -8 9 12 -13 -14 0
2 3 -4 -7 -8 9 -12 13 -14 0
2 3 -4 -7 -8 9 -12 -13 14 0
2 3 -4 -7 -8 9 -12 -13 -14 0
2 3 -4 -7 -8 -9 12 13 -14 0
2 3 -4 -7 -8 -9 12 -13 14 0
2 3 -4 -7 -8 -9 12 -13 -14 0
2 3 -4 -7 -8 -9 -12 13 14 0
2 3 -4 -7 -8 -9 -12 13 -14 0
2 3 -4 -7 -8 -9 -12 -13 14 0
2 3 -4 -7 -8 -9 -12 -13 -14 0
2 -3 4 7 8 9 12 -13 -14 0
2 -3 4 7 8 9 -12 13 -14 0
2 -3 4 7 8 9 -12 -13 14 0
2 -3 4 7 8 -9 12 13 -14 0
2 -3 4 7 8 -9 12 -13 14 0
2 -3 4 7 8 -9 -12 13 14 0
2 -3 4 7 -8 9 12 13 14 0
2 -3 4 7 -8 9 -12 -13 -14 0
2 -3 4 7 -8 -9 12 -13 -14 0
2 -3 4 7 -8 -9 -12 13 -14 0
2 -3 4 7 -8 -9 -12 -13 14 0
2 -3 4 7 -8 -9 -12 -13 -14 0
2 -3 4 -7 8 9 12 13 -14 0
2 -3 4 -7 8 9 12 -13 14 0
2 -3 4 -7 8 9 -12 13 14 0
2 -3 4 -7 8 -9 12 13 14 0
2 -3 4 -7 -8 9 12 -13 -14 0
2 -3 4 -7 -8 9 -12 13 -14 0
2 -3 4 -7 -8 9 -12 -13 14 0
2 -3 4 -7 -8 9 -12 -13 -14 0
2 -3 4 -7 -8 -9 12 13 -14 0
2 -3 4 -7 -8 -9 12 -13 14 0
2 -3 4 -7 -8 -9 12 -13 -14 0
2 -3 4 -7 -8 -9 -12 13 14 0
2 -3 4 -7 -8 -9 -12 13 -14 0
2 -3 4 -7 -8 -9 -12 -13 14 0
2 -3 4 -7 -8 -9 -12 -13 -14 0
2 -3 -4 7 8 9 12 13 -14 0
2 -3 -4 7 8 9 12 -13 14 0
2 -3 -4 7 8 9 -12 13 14 0
2 -3 -4 7 8 -9 12 13 14 0
2 -3 -4 7 -8 9 12 -13 -14 0
2 -3 -4 7 -8 9 -12 13 -14 0
2 -3 -4 7 -8 9 -12 -13 14 0
2 -3 -4 7 -8 9 -12 -13 -14 0
2 -3 -4 7 -8 -9 12 13 -14 0
2 -3 -4 7 -8 -9 12 -13 14 0
2 -3 -4 7 -8 -9 12 -13 -14 0
2 -3 -4 7 -8 -9 -12 13 14 0
2 -3 -4 7 -8 -9 -12 13 -14 0
2 -3 -4 7 -8 -9 -12 -13 14 0
2 -3 -4 7 -8 -9 -12 -13 -14 0
2 -3 -4 -7 8 9 12 13 14 0
2 -3 -4 -7 -8 9 12 13 -14 0
2 -3 -4 -7 -8 9 12 -13 14 0
2 -3 -4 -7 -8 9 12 -13 -14 0
2 -3 -4 -7 -8 9 -12 13 14 0
2 -3 -4 -7 -8 9 -12 13 -14 0
2 -3 -4 -7 -8 9 -12 -13 14 0
2 -3 -4 -7 -8 9 -12 -13 -14 0
2 -3 -4 -7 -8 -9 12 13 14 0
2 -3 -4 -7 -8 -9 12 13 -14 0
2 -3 -4 -7 -8 -9 12 -13 14 0
2 -3 -4 -7 -8 -9 12 -13 -14 0
2 -3 -4 -7 -8 -9 -12 13 14 0
2 -3 -4 -7 -8 -9 -12 13 -14 0
2 -3 -4 -7 -8 -9 -12 -13 14 0
2 -3 -4 -7 -8 -9 -12 -13 -14 0
-2 3 4 7 8 9 12 -13 -14 0
-2 3 4 7 8 9 -12 13 -14 0
-2 3 4 7 8 9 -12 -13 14 0
-2 3 4 7 8 -9 12 13 -14 0
-2 3 4 7 8 -9 12 -13 14 0
-2 3 4 7 8 -9 -12 13 14 0
-2 3 4 7 -8 9 12 13 14 0
-2 3 4 7 -8 9 -12 -13 -14 0
-2 3 4 7 -8 -9 12 -13 -14 0
-2 3 4 7 -8 -9 -12 13 -14 0
-2 3 4 7 -8 -9 -12 -13 14 0
-2 3 4 7 -8 -9 -12 -13 -14 0
-2 3 4 -7 8 9 12 13 -14 0
-2 3 4 -7 8 9 12 -13 14 0
-2 3 4 -7 8 9 -12 13 14 0
-2 3 4 -7 8 -9 12 13 14 0
-2 3 4 -7 -8 9 12 -13 -14 0
-2 3 4 -7 -8 9 -12 13 -14 0
-2 3 4 -7 -8 9 -12 -13 14 0
-2 3 4 -7 -8 9 -12 -13 -14 0
-2 3 4 -7 -8 -9 12 13 -14 0
-2 3 4 -7 -8 -9 12 -13 14 0
-2 3 4 -7 -8 -9 12 -13 -14 0
-2 3 4 -7 -8 -9 -12 13 14 0
-2 3 4 -7 -8 -9 -12 13 -14 0
-2 3 4 -7 -8 -9 -12 -13 14 0
-2 3 4 -7 -8 -9 -12 -13 -14 0
-2 3 -4 7 8 9 12 13 -14 0
-2 3 -4 7 8 9 12 -13 14 0
-2 3 -4 7 8 9 -12 13 14 0
-2 3 -4 7 8 -9 12 13 14 0
-2 3 -4 7 -8 9 12 -13 -14 0
-2 3 -4 7 -8 9 -12 13 -14 0
-2 3 -4 7 -8 9 -12 -13 14 0
-2 3 -4 7 -8 9 -12 -13 -14 0
-2 3 -4 7 -8 -9 12 13 -14 0
-2 3 -4 7 -8 -9 12 -13 14 0
-2 3 -4 7 -8 -9 12 -13 -14 0
-2 3 -4 7 -8 -9 -12 13 14 0
-2 3 -4 7 -8 -9 -12 13 -14 0
-2 3 -4 7 -8 -9 -12 -13 14 0
-2 3 -4 7 -8 -9 -12 -13 -14 0
-2 3 -4 -7 8 9 12 13 14 0
-2 3 -4 -7 -8 9 12 13 -14 0
-2 3 -4 -7 -8 9 12 -13 14 0
-2 3 -4 -7 -8 9 12 -13 -14 0
-2 3 -4 -7 -8 9 -12 13 14 0
-2 3 -4 -7 -8 9 -12 13 -14 0
-2 3 -4 -7 -8 9 -12 -13 14 0
-2 3 -4 -7 -8 9 -12 -13 -14 0
-2 3 -4 -7 -8 -9 12 13 14 0
-2 3 -4 -7 -8 -9 12 13 -14 0
-2 3 -4 -7 -8 -9 12 -13 14 0
-2 3 -4 -7 -8 -9 12 -13 -14 0
-2 3 -4 -7 -8 -9 -12 13 14 0
-2 3 -4 -7 -8 -9 -12 13 -14 0
-2 3 -4 -7 -8 -9 -12 -13 14 0
-2 3 -4 -7 -8 -9 -12 -13 -14 0
-2 -3 4 7 8 9 12 13 -14 0
-2 -3 4 7 8 9 12 -13 14 0
-2 -3 4 7 8 9 -12 13 14 0
-2 -3 4 7 8 -9 12 13 14 0
-2 -3 4 7 -8 9 12 -13 -14 0
-2 -3 4 7 -8 9 -12 13 -14 0
-2 -3 4 7 -8 9 -12 -13 14 0
-2 -3 4 7 -8 9 -12 -13 -14 0
-2 -3 4 7 -8 -9 12 13 -14 0
-2 -3 4 7 -8 -9 12 -13 14 0
-2 -3 4 7 -8 -9 12 -13 -14 0
-2 -3 4 7 -8 -9 -12 13 14 0
-2 -3 4 7 -8 -9 -12 13 -14 0
-2 -3 4 7 -8 -9 -12 -13 14 0
-2 -3 4 7 -8 -9 -12 -13 -14 0
-2 -3 4 -7 8 9 12 13 14 0
-2 -3 4 -7 -8 9 12 13 -14 0
-2 -3 4 -7 -8 9 12 -13 14 0
-2 -3 4 -7 -8 9 12 -13 -14 0
-2 -3 4 -7 -8 9 -12 13 14 0
-2 -3 4 -7 -8 9 -12 13 -14 0
-2 -3 4 -7 -8 9 -12 -13 14 0
-2 -3 4 -7 -8 9 -12 -13 -14 0
-2 -3 4 -7 -8 -9 12 13 14 0
-2 -3 4 -7 -8 -9 12 13 -14 0
-2 -3 4 -7 -8 -9 12 -13 14 0
-2 -3 4 -7 -8 -9 12 -13 -14 0
-2 -3 4 -7 -8 -9 -12 13 14 0
-2 -3 4 -7 -8 -9 -12 13 -14 0
-2 -3 4 -7 -8 -9 -12 -13 14 0
-2 -3 4 -7 -8 -9 -12 -13 -14 0
-2 -3 -4 7 8 9 12 13 14 0
-2 -3 -4 7 -8 9 12 13 -14 0
-2 -3 -4 7 -8 9 12 -13 14 0
-2 -3 -4 7 -8 9 12 -13 -14 0
-2 -3 -4 7 -8 9 -12 13 14 0
-2 -3 -4 7 -8 9 -12 13 -14 0
-2 -3 -4 7 -8 9 -12 -13 14 0
-2 -3 -4 7 -8 9 -12 -13 -14 0
-2 -3 -4 7 -8 -9 12 13 14 0
-2 -3 -4 7 -8 -9 12 13 -14 0
-2 -3 -4 7 -8 -9 12 -13 14 0
-2 -3 -4 7 -8 -9 12 -13 -14 0
-2 -3 -4 7 -8 -9 -12 13 14 0
-2 -3 -4 7 -8 -9 -12 13 -14 0
-2 -3 -4 7 -8 -9 -12 -13 14 0
-2 -3 -4 7 -8 -9 -12 -13 -14 0
-2 -3 -4 -7 -8 9 12 13 14 0
-2 -3 -4 -7 -8 9 12 13 -14 0
-2 -3 -4 -7 -8 9 12 -13 14 0
-2 -3 -4 -7 -8 9 12 -13 -14 0
-2 -3 -4 -7 -8 9 -12 13 14 0
-2 -3 -4 -7 -8 9 -12 13 -14 0
-2 -3 -4 -7 -8 9 -12 -13 14 0
-2 -3 -4 -7 -8 9 -12 -13 -14 0
-2 -3 -4 -7 -8 -9 12 13 14 0
-2 -3 -4 -7 -8 -9 12 13 -14 0
-2 -3 -4 -7 -8 -9 12 -13 14 0
-2 -3 -4 -7 -8 -9 12 -13 -14 0
-2 -3 -4 -7 -8 -9 -12 13 14 0
-2 -3 -4 -7 -8 -9 -12 13 -14 0
-2 -3 -4 -7 -8 -9 -12 -13 14 0
-2 -3 -4 -7 -8 -9 -12 -13 -14 0
3 4 5 8 9 10 -13 -14 -15 0
3 4 5 8 9 -10 13 -14 -15 0
3 4 5 8 9 -10 -13 14 -15 0
3 4 5 8 9 -10 -13 -14 15 0
3 4 5 8 -9 10 13 14 15 0
3 4 5 8 -9 10 13 14 -15 0
3 4 5 8 -9 10 13 -14 15 0
3 4 5 8 -9 10 -13 14 15 0
3 4 5 8 -9 -10 13 14 15 0
3 4 5 8 -9 -10 -13 -14 -15 0
3 4 5 -8 9 10 13 -14 -15 0
3 4 5 -8 9 10 -13 14 -15 0
3 4 5 -8 9 10 -13 -14 15 0
3 4 5 -8 9 -10 13 14 -15 0
3 4 5 -8 9 -10 13 -14 15 0
3 4 5 -8 9 -10 -13 14 15 0
3 4 5 -8 -9 10 13 14 15 0
3 4 5 -8 -9 10 -13 -14 -15 0
3 4 5 -8 -9 -10 13 -14 -15 0
3 4 5 -8 -9 -10 -13 14 -15 0
3 4 5 -8 -9 -10 -13 -14 15 0
3 4 5 -8 -9 -10 -13 -14 -15 0
3 4 -5 8 9 10 13 -14 -15 0
3 4 -5 8 9 10 -13 14 -15 0
3 4 -5 8 9 10 -13 -14 15 0
3 4 -5 8 9 -10 13 14 -15 0
3 4 -5 8 9 -10 13 -14 15 0
3 4 -5 8 9 -10 -13 14 15 0
3 4 -5 8 -9 10 13 14 15 0
3 4 -5 8 -9 10 -13 -14 -15 0
3 4 -5 8 -9 -10 13 -14 -15 0
3 4 -5 8 -9 -10 -13 14 -15 0
3 4 -5 8 -9 -10 -13 -14 15 0
3 4 -5 8 -9 -10 -13 -14 -15 0
3 4 -5 -8 9 10 13 14 -15 0
3 4 -5 -8 9 10 13 -14 15 0
3 4 -5 -8 9 10 -13 14 15 0
3 4 -5 -8 9 -10 13 14 15 0
3 4 -5 -8 -9 10 13 -14 -15 0
3 4 -5 -8 -9 10 -13 14 -15 0
3 4 -5 -8 -9 10 -13 -14 15 0
3 4 -5 -8 -9 10 -13 -14 -15 0
3 4 -5 -8 -9 -10 13 14 -15 0
3 4 -5 -8 -9 -10 13 -14 15 0
3 4 -5 -8 -9 -10 13 -14 -15 0
3 4 -5 -8 -9 -10 -13 14 15 0
3 4 -5 -8 -9 -10 -13 14 -15 0
3 4 -5 -8 -9 -10 -13 -14 15 0
3 4 -5 -8 -9 -10 -13 -14 -15 0
3 -4 5 8 9 10 13 -14 -15 0
3 -4 5 8 9 10 -13 14 -15 0
3 -4 5 8 9 10 -13 -14 15 0
3 -4 5 8 9 -10 13 14 -15 0
3 -4 5 8 9 -10 13 -14 15 0
3 -4 5 8 9 -10 -13 14 15 0
3 -4 5 8 -9 10 13 14 15 0
3 -4 5 8 -9 10 -13 -14 -15 0
3 -4 5 8 -9 -10 13 -14 -15 0
3 -4 5 8 -9 -10 -13 14 -15 0
3 -4 5 8 -9 -10 -13 -14 15 0
3 -4 5 8 -9 -10 -13 -14 -15 0
3 -4 5 -8 9 10 13 14 -15 0
3 -4 5 -8 9 10 13 -14 15 0
3 -4 5 -8 9 10 -13 14 15 0
3 -4 5 -8 9 -10 13 14 15 0
3 -4 5 -8 -9 10 13 -14 -15 0
3 -4 5 -8 -9 10 -13 14 -15 0
3 -4 5 -8 -9 10 -13 -14 15 0
3 -4 5 -8 -9 10 -13 -14 -15 0
3 -4 5 -8 -9 -10 13 14 -15 0
3 -4 5 -8 -9 -10 13 -14 15 0
3 -4 5 -8 -9 -10 13 -14 -15 0
3 -4 5 -8 -9 -10 -13 14 15 0
3 -4 5 -8 -9 -10 -13 14 -15 0
3 -4 5 -8 -9 -10 -13 -14 15 0
3 -4 5 -8 -9 -10 -13 -14 -15 0
3 -4 -5 8 9 10 13 14 -15 0
3 -4 -5 8 9 10 13 -14 15 0
3 -4 -5 8 9 10 -13 14 15 0
3 -4 -5 8 9 -10 13 14 15 0
3 -4 -5 8 -9 10 13 -14 -15 0
3 -4 -5 8 -9 10 -13 14 -15 0
3 -4 -5 8 -9 10 -13 -14 15 0
3 -4 -5 8 -9 10 -13 -14 -15 0
3 -4 -5 8 -9 -10 13 14 -15 0
3 -4 -5 8 -9 -10 13 -14 15 0
3 -4 -5 8 -9 -10 13 -14 -15 0
3 -4 -5 8 -9 -10 -13 14 15 0
3 -4 -5 8 -9 -10 -13 14 -15 0
3 -4 -5 8 -9 -10 -13 -14 15 0
3 -4 -5 8 -9 -10 -13 -14 -15 0
3 -4 -5 -8 9 10 13 14 15 0
3 -4 -5 -8 -9 10 13 14 -15 0
3 -4 -5 -8 -9 10 13 -14 15 0
3 -4 -5 -8 -9 10 13 -14 -15 0
3 -4 -5 -8 -9 10 -13 14 15 0
3 -4 -5 -8 -9 10 -13 14 -15 0
3 -4 -5 -8 -9 10 -13 -14 15 0
3 -4 -5 -8 -9 10 -13 -14 -15 0
3 -4 -5 -8 -9 -10 13 14 15 0
3 -4 -5 -8 -9 -10 13 14 -15 0
3 -4 -5 -8 -9 -10 13 -14 15 0
3 -4 -5 -8 -9 -10 13 -14 -15 0
3 -4 -5 -8 -9 -10 -13 14 15 0
3 -4 -5 -8 -9 -10 -13 14 -15 0
3 -4 -5 -8 -9 -10 -13 -14 15 0
3 -4 -5 -8 -9 -10 -13 -14 -15 0
-3 4 5 8 9 10 13 -14 -15 0
-3 4 5 8 9 10 -13 14 -15 0
-3 4 5 8 9 10 -13 -14 15 0
-3 4 5 8 9 -10 13 14 -15 0
-3 4 5 8 9 -10 13 -14 15 0
-3 4 5 8 9 -10 -13 14 15 0
-3 4 5 8 -9 10 13 14 15 0
-3 4 5 8 -9 10 -13 -14 -15 0
-3 4 5 8 -9 -10 13 -14 -15 0
-3 4 5 8 -9 -10 -13 14 -15 0
-3 4 5 8 -9 -10 -13 -14 15 0
-3 4 5 8 -9 -10 -13 -14 -15 0
-3 4 5 -8 9 10 13 14 -15 0
-3 4 5 -8 9 10 13 -14 15 0
-3 4 5 -8 9 10 -13 14 15 0
-3 4 5 -8 9 -10 13 14 15 0
-3 4 5 -8 -9 10 13 -14 -15 0
-3 4 5 -8 -9 10 -13 14 -15 0
-3 4 5 -8 -9 10 -13 -14 15 0
-3 4 5 -8 -9 10 -13 -14 -15 0
-3 4 5 -8 -9 -10 13 14 -15 0
-3 4 5 -8 -9 -10 13 -14 15 0
-3 4 5 -8 -9 -10 13 -14 -15 0
-3 4 5 -8 -9 -10 -13 14 15 0
-3 4 5 -8 -9 -10 -13 14 -15 0
-3 4 5 -8 -9 -10 -13 -14 15 0
-3 4 5 -8 -9 -10 -13 -14 -15 0
-3 4 -5 8 9 10 13 14 -15 0
-3 4 -5 8 9 10 13 -14 15 0
-3 4 -5 8 9 10 -13 14 15 0
-3 4 -5 8 9 -10 13 14 15 0
-3 4 -5 8 -9 10 13 -14 -15 0
-3 4 -5 8 -9 10 -13 14 -15 0
-3 4 -5 8 -9 10 -13 -14 15 0
-3 4 -5 8 -9 10 -13 -14 -15 0
-3 4 -5 8 -9 -10 13 14 -15 0
-3 4 -5 8 -9 -10 13 -14 15 0
-3 4 -5 8 -9 -10 13 -14 -15 0
-3 4 -5 8 -9 -10 -13 14 15 0
-3 4 -5 8 -9 -10 -13 14 -15 0
-3 4 -5 8 -9 -10 -13 -14 15 0
-3 4 -5 8 -9 -10 -13 -14 -15 0
-3 4 -5 -8 9 10 13 14 15 0
-3 4 -5 -8 -9 10 13 14 -15 0
-3 4 -5 -8 -9 10 13 -14 15 0
-3 4 -5 -8 -9 10 13 -14 -15 0
-3 4 -5 -8 -9 10 -13 14 15 0
-3 4 -5 -8 -9 10 -13 14 -15 0
-3 4 -5 -8 -9 10 -13 -14 15 0
-3 4 -5 -8 -9 10 -13 -14 -15 0
-3 4 -5 -8 -9 -10 13 14 15 0
-3 4 -5 -8 -9 -10 13 14 -15 0
-3 4 -5 -8 -9 -10 13 -14 15 0
-3 4 -5 -8 -9 -10 13 -14 -15 0
-3 4 -5 -8 -9 -10 -13 14 15 0
-3 4 -5 -8 -9 -10 -13 14 -15 0
-3 4 -5 -8 -9 -10 -13 -14 15 0
-3 4 -5 -8 -9 -10 -13 -14 -15 0
-3 -4 5 8 9 10 13 14 -15 0
-3 -4 5 8 9 10 13 -14 15 0
-3 -4 5 8 9 10 -13 14 15 0
-3 -4 5 8 9 -10 13 14 15 0
-3 -4 5 8 -9 10 13 -14 -15 0
-3 -4 5 8 -9 10 -13 14 -15 0
-3 -4 5 8 -9 10 -13 -14 15 0
-3 -4 5 8 -9 10 -13 -14 -15 0
-3 -4 5 8 -9 -10 13 14 -15 0
-3 -4 5 8 -9 -10 13 -14 15 0
-3 -4 5 8 -9 -10 13 -14 -15 0
-3 -4 5 8 -9 -10 -13 14 15 0
-3 -4 5 8 -9 -10 -13 14 -15 0
-3 -4 5 8 -9 -10 -13 -14 15 0
-3 -4 5 8 -9 -10 -13 -14 -15 0
-3 -4 5 -8 9 10 13 14 15 0
-3 -4 5 -8 -9 10 13 14 -15 0
-3 -4 5 -8 -9 10 13 -14 15 0
-3 -4 5 -8 -9 10 13 -14 -15 0
-3 -4 5 -8 -9 10 -13 14 15 0
-3 -4 5 -8 -9 10 -13 14 -15 0
-3 -4 5 -8 -9 10 -13 -14 15 0
-3 -4 5 -8 -9 10 -13 -14 -15 0
-3 -4 5 -8 -9 -10 13 14 15 0
-3 -4 5 -8 -9 -10 13 14 -15 0
-3 -4 5 -8 -9 -10 13 -14 15 0
-3 -4 5 -8 -9 -10 13 -14 -15 0
-3 -4 5 -8 -9 -10 -13 14 15 0
-3 -4 5 -8 -9 -10 -13 14 -15 0
-3 -4 5 -8 -9 -10 -13 -14 15 0
-3 -4 5 -8 -9 -10 -13 -14 -15 0
-3 -4 -5 8 9 10 13 14 15 0
-3 -4 -5 8 -9 10 13 14 -15 0
-3 -4 -5 8 -9 10 13 -14 15 0
-3 -4 -5 8 -9 10 13 -14 -15 0
-3 -4 -5 8 -9 10 -13 14 15 0
-3 -4 -5 8 -9 10 -13 14 -15 0
-3 -4 -5 8 -9 10 -13 -14 15 0
-3 -4 -5 8 -9 10 -13 -14 -15 0
-3 -4 -5 8 -9 -10 13 14 15 0
-3 -4 -5 8 -9 -10 13 14 -15 0
-3 -4 -5 8 -9 -10 13 -14 15 0
-3 -4 -5 8 -9 -10 13 -14 -15 0
-3 -4 -5 8 -9 -10 -13 14 15 0
-3 -4 -5 8 -9 -10 -13 14 -15 0
-3 -4 -5 8 -9 -10 -13 -14 15 0
-3 -4 -5 8 -9 -10 -13 -14 -15 0
-3 -4 -5 -8 -9 10 13 14 15 0
-3 -4 -5 -8 -9 10 13 14 -15 0
-3 -4 -5 -8 -9 10 13 -14 15 0
-3 -4 -5 -8 -9 10 13 -14 -15 0
-3 -4 -5 -8 -9 10 -13 14 15 0
-3 -4 -5 -8 -9 10 -13 14 -15 0
-3 -4 -5 -8 -9 10 -13 -14 15 0
-3 -4 -5 -8 -9 10 -13 -14 -15 0
-3 -4 -5 -8 -9 -10 13 14 15 0
-3 -4 -5 -8 -9 -10 13 14 -15 0
-3 -4 -5 -8 -9 -10 13 -14 15 0
-3 -4 -5 -8 -9 -10 13 -14 -15 0
-3 -4 -5 -8 -9 -10 -13 14 15 0
-3 -4 -5 -8 -9 -10 -13 14 -15 0
-3 -4 -5 -8 -9 -10 -13 -14 15 0
-3 -4 -5 -8 -9 -10 -13 -14 -15 0
4 5 9 -10 14 15 0
4 5 9 -10 14 -15 0
4 5 9 -10 -14 15 0
4 5 -9 10 -14 -15 0
4 5 -9 -10 14 15 0
4 -5 9 10 -14 -15 0
4 -5 9 -10 14 15 0
4 -5 -9 10 14 -15 0
4 -5 -9 10 -14 15 0
4 -5 -9 -10 -14 -15 0
-4 5 9 10 -14 -15 0
-4 5 9 -10 14 15 0
-4 5 -9 10 14 -15 0
-4 5 -9 10 -14 15 0
-4 5 -9 -10 -14 -15 0
-4 -5 9 10 14 -15 0
-4 -5 9 10 -14 15 0
-4 -5 9 -10 -14 -15 0
-4 -5 -9 10 14 15 0
-4 -5 -9 -10 14 -15 0
-4 -5 -9 -10 -14 15 0
-4 -5 -9 -10 -14 -15 0
-5 -10 -15 0
-6 -11 -16 0
6 7 11 -12 -16 -17 0
6 7 -11 12 16 17 0
6 7 -11 12 16 -17 0
6 7 -11 12 -16 17 0
6 7 -11 -12 16 17 0
6 -7 11 12 -16 -17 0
6 -7 11 -12 16 -17 0
6 -7 11 -12 -16 17 0
6 -7 -11 12 16 17 0
6 -7 -11 -12 -16 -17 0
-6 7 11 12 -16 -17 0
-6 7 11 -12 16 -17 0
-6 7 11 -12 -16 17 0
-6 7 -11 12 16 17 0
-6 7 -11 -12 -16 -17 0
-6 -7 11 12 16 -17 0
-6 -7 11 12 -16 17 0
-6 -7 11 -12 16 17 0
-6 -7 -11 12 -16 -17 0
-6 -7 -11 -12 16 -17 0
-6 -7 -11 -12 -16 17 0
-6 -7 -11 -12 -16 -17 0
6 7 8 11 12 13 -16 -17 -18 0
6 7 8 11 12 -13 16 -17 -18 0
6 7 8 11 12 -13 -16 17 -18 0
6 7 8 11 12 -13 -16 -17 18 0
6 7 8 11 -12 13 16 17 18 0
6 7 8 11 -12 13 16 17 -18 0
6 7 8 11 -12 13 16 -17 18 0
6 7 8 11 -12 13 -16 17 18 0
6 7 8 11 -12 -13 16 17 18 0
6 7 8 11 -12 -13 -16 -17 -18 0
6 7 8 -11 12 13 16 -17 -18 0
6 7 8 -11 12 13 -16 17 -18 0
6 7 8 -11 12 13 -16 -17 18 0
6 7 8 -11 12 -13 16 17 -18 0
6 7 8 -11 12 -13 16 -17 18 0
6 7 8 -11 12 -13 -16 17 18 0
6 7 8 -11 -12 13 16 17 18 0
6 7 8 -11 -12 13 -16 -17 -18 0
6 7 8 -11 -12 -13 16 -17 -18 0
6 7 8 -11 -12 -13 -16 17 -18 0
6 7 8 -11 -12 -13 -16 -17 18 0
6 7 8 -11 -12 -13 -16 -17 -18 0
6 7 -8 11 12 13 16 -17 -18 0
6 7 -8 11 12 13 -16 17 -18 0
6 7 -8 11 12 13 -16 -17 18 0
6 7 -8 11 12 -13 16 17 -18 0
6 7 -8 11 12 -13 16 -17 18 0
6 7 -8 11 12 -13 -16 17 18 0
6 7 -8 11 -12 13 16 17 18 0
6 7 -8 11 -12 13 -16 -17 -18 0
6 7 -8 11 -12 -13 16 -17 -18 0
6 7 -8 11 -12 -13 -16 17 -18 0
6 7 -8 11 -12 -13 -16 -17 18 0
6 7 -8 11 -12 -13 -16 -17 -18 0
6 7 -8 -11 12 13 16 17 -18 0
6 7 -8 -11 12 13 16 -17 18 0
6 7 -8 -11 12 13 -16 17 18 0
6 7 -8 -11 12 -13 16 17 18 0
6 7 -8 -11 -12 13 16 -17 -18 0
6 7 -8 -11 -12 13 -16 17 -18 0
6 7 -8 -11 -12 13 -16 -17 18 0
6 7 -8 -11 -12 13 -16 -17 -18 0
6 7 -8 -11 -12 -13 16 17 -18 0
6 7 -8 -11 -12 -13 16 -17 18 0
6 7 -8 -11 -12 -13 16 -17 -18 0
6 7 -8 -11 -12 -13 -16 17 18 0
6 7 -8 -11 -12 -13 -16 17 -18 0
6 7 -8 -11 -12 -13 -16 -17 18 0
6 7 -8 -11 -12 -13 -16 -17 -18 0
6 -7 8 11 12 13 16 -17 -18 0
6 -7 8 11 12 13 -16 17 -18 0
6 -7 8 11 12 13 -16 -17 18 0
6 -7 8 11 12 -13 16 17 -18 0
6 -7 8 11 12 -13 16 -17 18 0
6 -7 8 11 12 -13 -16 17 18 0
6 -7 8 11 -12 13 16 17 18 0
6 -7 8 11 -12 13 -16 -17 -18 0
6 -7 8 11 -12 -13 16 -17 -18 0
6 -7 8 11 -12 -13 -16 17 -18 0
6 -7 8 11 -12 -13 -16 -17 18 0
6 -7 8 11 -12 -13 -16 -17 -18 0
6 -7 8 -11 12 13 16 17 -18 0
6 -7 8 -11 12 13 16 -17 18 0
6 -7 8 -11 12 13 -16 17 18 0
6 -7 8 -11 12 -13 16 17 18 0
6 -7 8 -11 -12 13 16 -17 -18 0
6 -7 8 -11 -12 13 -16 17 -18 0
6 -7 8 -11 -12 13 -16 -17 18 0
6 -7 8 -11 -12 13 -16 -17 -18 0
6 -7 8 -11 -12 -13 16 17 -18 0
6 -7 8 -11 -12 -13 16 -17 18 0
6 -7 8 -11 -12 -13 16 -17 -18 0
6 -7 8 -11 -12 -13 -16 17 18 0
6 -7 8 -11 -12 -13 -16 17 -18 0
6 -7 8 -11 -12 -13 -16 -17 18 0
6 -7 8 -11 -12 -13 -16 -17 -18 0
6 -7 -8 11 12 13 16 17 -18 0
6 -7 -8 11 12 13 16 -17 18 0
6 -7 -8 11 12 13 -16 17 18 0
6 -7 -8 11 12 -13 16 17 18 0
6 -7 -8 11 -12 13 16 -17 -18 0
6 -7 -8 11 -12 13 -16 17 -18 0
6 -7 -8 11 -12 13 -16 -17 18 0
6 -7 -8 11 -12 13 -16 -17 -18 0
6 -7 -8 11 -12 -13 16 17 -18 0
6 -7 -8 11 -12 -13 16 -17 18 0
6 -7 -8 11 -12 -13 16 -17 -18 0
6 -7 -8 11 -12 -13 -16 17 18 0
6 -7 -8 11 -12 -13 -16 17 -18 0
6 -7 -8 11 -12 -13 -16 -17 18 0
6 -7 -8 11 -12 -13 -16 -17 -18 0
6 -7 -8 -11 12 13 16 17 18 0
6 -7 -8 -11 -12 13 16 17 -18 0
6 -7 -8 -11 -12 13 16 -17 18 0
6 -7 -8 -11 -12 13 16 -17 -18 0
6 -7 -8 -11 -12 13 -16 17 18 0
6 -7 -8 -11 -12 13 -16 17 -18 0
6 -7 -8 -11 -12 13 -16 -17 18 0
6 -7 -8 -11 -12 13 -16 -17 -18 0
6 -7 -8 -11 -12 -13 16 17 18 0
6 -7 -8 -11 -12 -13 16 17 -18 0
6 -7 -8 -11 -12 -13 16 -17 18 0
6 -7 -8 -11 -12 -13 16 -17 -18 0
6 -7 -8 -11 -12 -13 -16 17 18 0
6 -7 -8 -11 -12 -13 -16 17 -18 0
6 -7 -8 -11 -12 -13 -16 -17 18 0
6 -7 -8 -11 -12 -13 -16 -17 -18 0
-6 7 8 11 12 13 16 -17 -18 0
-6 7 8 11 12 13 -16 17 -18 0
-6 7 8 11 12 13 -16 -17 18 0
-6 7 8 11 12 -13 16 17 -18 0
-6 7 8 11 12 -13 16 -17 18 0
-6 7 8 11 12 -13 -16 17 18 0
-6 7 8 11 -12 13 16 17 18 0
-6 7 8 11 -12 13 -16 -17 -18 0
-6 7 8 11 -12 -13 16 -17 -18 0
-6 7 8 11 -12 -13 -16 17 -18 0
-6 7 8 11 -12 -13 -16 -17 18 0
-6 7 8 11 -12 -13 -16 -17 -18 0
-6 7 8 -11 12 13 16 17 -18 0
-6 7 8 -11 12 13 16 -17 18 0
-6 7 8 -11 12 13 -16 17 18 0
-6 7 8 -11 12 -13 16 17 18 0
-6 7 8 -11 -12 13 16 -17 -18 0
-6 7 8 -11 -12 13 -16 17 -18 0
-6 7 8 -11 -12 13 -16 -17 18 0
-6 7 8 -11 -12 13 -16 -17 -18 0
-6 7 8 -11 -12 -13 16 17 -18 0
-6 7 8 -11 -12 -13 16 -17 18 0
-6 7 8 -11 -12 -13 16 -17 -18 0
-6 7 8 -11 -12 -13 -16 17 18 0
-6 7 8 -11 -12 -13 -16 17 -18 0
-6 7 8 -11 -12 -13 -16 -17 18 0
-6 7 8 -11 -12 -13 -16 -17 -18 0
-6 7 -8 11 12 13 16 17 -18 0
-6 7 -8 11 12 13 16 -17 18 0
-6 7 -8 11 12 13 -16 17 18 0
-6 7 -8 11 12 -13 16 17 18 0
-6 7 -8 11 -12 13 16 -17 -18 0
-6 7 -8 11 -12 13 -16 17 -18 0
-6 7 -8 11 -12 13 -16 -17 18 0
-6 7 -8 11 -12 13 -16 -17 -18 0
-6 7 -8 11 -12 -13 16 17 -18 0
-6 7 -8 11 -12 -13 16 -17 18 0
-6 7 -8 11 -12 -13 16 -17 -18 0
-6 7 -8 11 -12 -13 -16 17 18 0
-6 7 -8 11 -12 -13 -16 17 -18 0
-6 7 -8 11 -12 -13 -16 -17 18 0
-6 7 -8 11 -12 -13 -16 -17 -18 0
-6 7 -8 -11 12 13 16 17 18 0
-6 7 -8 -11 -12 13 16 17 -18 0
-6 7 -8 -11 -12 13 16 -17 18 0
-6 7 -8 -11 -12 13 16 -17 -18 0
-6 7 -8 -11 -12 13 -16 17 18 0
-6 7 -8 -11 -12 13 -16 17 -18 0
-6 7 -8 -11 -12 13 -16 -17 18 0
-6 7 -8 -11 -12 13 -16 -17 -18 0
-6 7 -8 -11 -12 -13 16 17 18 0
-6 7 -8 -11 -12 -13 16 17 -18 0
-6 7 -8 -11 -12 -13 16 -17 18 0
-6 7 -8 -11 -12 -13 16 -17 -18 0
-6 7 -8 -11 -12 -13 -16 17 18 0
-6 7 -8 -11 -12 -13 -16 17 -18 0
-6 7 -8 -11 -12 -13 -16 -17 18 0
-6 7 -8 -11 -12 -13 -16 -17 -18 0
-6 -7 8 11 12 13 16 17 -18 0
-6 -7 8 11 12 13 16 -17 18 0
-6 -7 8 11 12 13 -16 17 18 0
-6 -7 8 11 12 -13 16 17 18 0
-6 -7 8 11 -12 13 16 -17 -18 0
-6 -7 8 11 -12 13 -16 17 -18 0
-6 -7 8 11 -12 13 -16 -17 18 0
-6 -7 8 11 -12 13 -16 -17 -18 0
-6 -7 8 11 -12 -13 16 17 -18 0
-6 -7 8 11 -12 -13 16 -17 18 0
-6 -7 8 11 -12 -13 16 -17 -18 0
-6 -7 8 11 -12 -13 -16 17 18 0
-6 -7 8 11 -12 -13 -16 17 -18 0
-6 -7 8 11 -12 -13 -16 -17 18 0
-6 -7 8 11 -12 -13 -16 -17 -18 0
-6 -7 8 -11 12 13 16 17 18 0
-6 -7 8 -11 -12 13 16 17 -18 0
-6 -7 8 -11 -12 13 16 -17 18 0
-6 -7 8 -11 -12 13 16 -17 -18 0
-6 -7 8 -11 -12 13 -16 17 18 0
-6 -7 8 -11 -12 13 -16 17 -18 0
-6 -7 8 -11 -12 13 -16 -17 18 0
-6 -7 8 -11 -12 13 -16 -17 -18 0
-6 -7 8 -11 -12 -13 16 17 18 0
-6 -7 8 -11 -12 -13 16 17 -18 0
-6 -7 8 -11 -12 -13 16 -17 18 0
-6 -7 8 -11 -12 -13 16 -17 -18 0
-6 -7 8 -11 -12 -13 -16 17 18 0
-6 -7 8 -11 -12 -13 -16 17 -18 0
-6 -7 8 -11 -12 -13 -16 -17 18 0
-6 -7 8 -11 -12 -13 -16 -17 -18 0
-6 -7 -8 11 12 13 16 17 18 0
-6 -7 -8 11 -12 13 16 17 -18 0
-6 -7 -8 11 -12 13 16 -17 18 0
-6 -7 -8 11 -12 13 16 -17 -18 0
-6 -7 -8 11 -12 13 -16 17 18 0
-6 -7 -8 11 -12 13 -16 17 -18 0
-6 -7 -8 11 -12 13 -16 -17 18 0
-6 -7 -8 11 -12 13 -16 -17 -18 0
-6 -7 -8 11 -12 -13 16 17 18 0
-6 -7 -8 11 -12 -13 16 17 -18 0
-6 -7 -8 11 -12 -13 16 -17 18 0
-6 -7 -8 11 -12 -13 16 -17 -18 0
-6 -7 -8 11 -12 -13 -16 17 18 0
-6 -7 -8 11 -12 -13 -16 17 -18 0
-6 -7 -8 11 -12 -13 -16 -17 18 0
-6 -7 -8 11 -12 -13 -16 -17 -18 0
-6 -7 -8 -11 -12 13 16 17 18 0
-6 -7 -8 -11 -12 13 16 17 -18 0
-6 -7 -8 -11 -12 13 16 -17 18 0
-6 -7 -8 -11 -12 13 16 -17 -18 0
-6 -7 -8 -11 -12 13 -16 17 18 0
-6 -7 -8 -11 -12 13 -16 17 -18 0
-6 -7 -8 -11 -12 13 -16 -17 18 0
-6 -7 -8 -11 -12 13 -16 -17 -18 0
-6 -7 -8 -11 -12 -13 16 17 18 0
-6 -7 -8 -11 -12 -13 16 17 -18 0
-6 -7 -8 -11 -12 -13 16 -17 18 0
-6 -7 -8 -11 -12 -13 16 -17 -18 0
-6 -7 -8 -11 -12 -13 -16 17 18 0
-6 -7 -8 -11 -12 -13 -16 17 -18 0
-6 -7 -8 -11 -12 -13 -16 -17 18 0
-6 -7 -8 -11 -12 -13 -16 -17 -18 0
7 8 9 12 13 14 -17 -18 -19 0
7 8 9 12 13 -14 17 -18 -19 0
7 8 9 12 13 -14 -17 18 -19 0
7 8 9 12 13 -14 -17 -18 19 0
7 8 9 12 -13 14 17 18 19 0
7 8 9 12 -13 14 17 18 -19 0
7 8 9 12 -13 14 17 -18 19 0
7 8 9 12 -13 14 -17 18 19 0
7 8 9 12 -13 -14 17 18 19 0
7 8 9 12 -13 -14 -17 -18 -19 0
7 8 9 -12 13 14 17 -18 -19 0
7 8 9 -12 13 14 -17 18 -19 0
7 8 9 -12 13 14 -17 -18 19 0
7 8 9 -12 13 -14 17 18 -19 0
7 8 9 -12 13 -14 17 -18 19 0
7 8 9 -12 13 -14 -17 18 19 0
7 8 9 -12 -13 14 17 18 19 0
7 8 9 -12 -13 14 -17 -18 -19 0
7 8 9 -12 -13 -14 17 -18 -19 0
7 8 9 -12 -13 -14 -17 18 -19 0
7 8 9 -12 -13 -14 -17 -18 19 0
7 8 9 -12 -13 -14 -17 -18 -19 0
7 8 -9 12 13 14 17 -18 -19 0
7 8 -9 12 13 14 -17 18 -19 0
7 8 -9 12 13 14 -17 -18 19 0
7 8 -9 12 13 -14 17 18 -19 0
7 8 -9 12 13 -14 17 -18 19 0
7 8 -9 12 13 -14 -17 18 19 0
7 8 -9 12 -13 14 17 18 19 0
7 8 -9 12 -13 14 -17 -18 -19 0
7 8 -9 12 -13 -14 17 -18 -19 0
7 8 -9 12 -13 -14 -17 18 -19 0
7 8 -9 12 -13 -14 -17 -18 19 0
7 8 -9 12 -13 -14 -17 -18 -19 0
7 8 -9 -12 13 14 17 18 -19 0
7 8 -9 -12 13 14 17 -18 19 0
7 8 -9 -12 13 14 -17 18 19 0
7 8 -9 -12 13 -14 17 18 19 0
7 8 -9 -12 -13 14 17 -18 -19 0
7 8 -9 -12 -13 14 -17 18 -19 0
7 8 -9 -12 -13 14 -17 -18 19 0
7 8 -9 -12 -13 14 -17 -18 -19 0
7 8 -9 -12 -13 -14 17 18 -19 0
7 8 -9 -12 -13 -14 17 -18 19 0
7 8 -9 -12 -13 -14 17 -18 -19 0
7 8 -9 -12 -13 -14 -17 18 19 0
7 8 -9 -12 -13 -14 -17 18 -19 0
7 8 -9 -12 -13 -14 -17 -18 19 0
7 8 -9 -12 -13 -14 -17 -18 -19 0
7 -8 9 12 13 14 17 -18 -19 0
7 -8 9 12 13 14 -17 18 -19 0
7 -8 9 12 13 14 -17 -18 19 0
7 -8 9 12 13 -14 17 18 -19 0
7 -8 9 12 13 -14 17 -18 19 0
7 -8 9 12 13 -14 -17 18 19 0
7 -8 9 12 -13 14 17 18 19 0
7 -8 9 12 -13 14 -17 -18 -19 0
7 -8 9 12 -13 -14 17 -18 -19 0
7 -8 9 12 -13 -14 -17 18 -19 0
7 -8 9 12 -13 -14 -17 -18 19 0
7 -8 9 12 -13 -14 -17 -18 -19 0
7 -8 9 -12 13 14 17 18 -19 0
7 -8 9 -12 13 14 17 -18 19 0
7 -8 9 -12 13 14 -17 18 19 0
7 -8 9 -12 13 -14 17 18 19 0
7 -8 9 -12 -13 14 17 -18 -19 0
7 -8 9 -12 -13 14 -17 18 -19 0
7 -8 9 -12 -13 14 -17 -18 19 0
7 -8 9 -12 -13 14 -17 -18 -19 0
7 -8 9 -12 -13 -14 17 18 -19 0
7 -8 9 -12 -13 -14 17 -18 19 0
7 -8 9 -12 -13 -14 17 -18 -19 0
7 -8 9 -12 -13 -14 -17 18 19 0
7 -8 9 -12 -13 -14 -17 18 -19 0
7 -8 9 -12 -13 -14 -17 -18 19 0
7 -8 9 -12 -13 -14 -17 -18 -19 0
7 -8 -9 12 13 14 17 18 -19 0
7 -8 -9 12 13 14 17 -18 19 0
7 -8 -9 12 13 14 -17 18 19 0
7 -8 -9 12 13 -14 17 18 19 0
7 -8 -9 12 -13 14 17 -18 -19 0
7 -8 -9 12 -13 14 -17 18 -19 0
7 -8 -9 12 -13 14 -17 -18 19 0
7 -8 -9 12 -13 14 -17 -18 -19 0
7 -8 -9 12 -13 -14 17 18 -19 0
7 -8 -9 12 -13 -14 17 -18 19 0
7 -8 -9 12 -13 -14 17 -18 -19 0
7 -8 -9 12 -13 -14 -17 18 19 0
7 -8 -9 12 -13 -14 -17 18 -19 0
7 -8 -9 12 -13 -14 -17 -18 19 0
7 -8 -9 12 -13 -14 -17 -18 -19 0
7 -8 -9 -12 13 14 17 18 19 0
7 -8 -9 -12 -13 14 17 18 -19 0
7 -8 -9 -12 -13 14 17 -18 19 0
7 -8 -9 -12 -13 14 17 -18 -19 0
7 -8 -9 -12 -13 14 -17 18 19 0
7 -8 -9 -12 -13 14 -17 18 -19 0
7 -8 -9 -12 -13 14 -17 -18 19 0
7 -8 -9 -12 -13 14 -17 -18 -19 0
7 -8 -9 -12 -13 -14 17 18 19 0
7 -8 -9 -12 -13 -14 17 18 -19 0
7 -8 -9 -12 -13 -14 17 -18 19 0
7 -8 -9 -12 -13 -14 17 -18 -19 0
7 -8 -9 -12 -13 -14 -17 18 19 0
7 -8 -9 -12 -13 -14 -17 18 -19 0
7 -8 -9 -12 -13 -14 -17 -18 19 0
7 -8 -9 -12 -13 -14 -17 -18 -19 0
-7 8 9 12 13 14 17 -18 -19 0
-7 8 9 12 13 14 -17 18 -19 0
-7 8 9 12 13 14 -17 -18 19 0
-7 8 9 12 13 -14 17 18 -19 0
-7 8 9 12 13 -14 17 -18 19 0
-7 8 9 12 13 -14 -17 18 19 0
-7 8 9 12 -13 14 17 18 19 0
-7 8 9 12 -13 14 -17 -18 -19 0
-7 8 9 12 -13 -14 17 -18 -19 0
-7 8 9 12 -13 -14 -17 18 -19 0
-7 8 9 12 -13 -14 -17 -18 19 0
-7 8 9 12 -13 -14 -17 -18 -19 0
-7 8 9 -12 13 14 17 18 -19 0
-7 8 9 -12 13 14 17 -18 19 0
-7 8 9 -12 13 14 -17 18 19 0
-7 8 9 -12 13 -14 17 18 19 0
-7 8 9 -12 -13 14 17 -18 -19 0
-7 8 9 -12 -13 14 -17 18 -19 0
-7 8 9 -12 -13 14 -17 -18 19 0
-7 8 9 -12 -13 14 -17 -18 -19 0
-7 8 9 -12 -13 -14 17 18 -19 0
-7 8 9 -12 -13 -14 17 -18 19 0
-7 8 9 -12 -13 -14 17 -18 -19 0
-7 8 9 -12 -13 -14 -17 18 19 0
-7 8 9 -12 -13 -14 -17 18 -19 0
-7 8 9 -12 -13 -14 -17 -18 19 0
-7 8 9 -12 -13 -14 -17 -18 -19 0
-7 8 -9 12 13 14 17 18 -19 0
-7 8 -9 12 13 14 17 -18 19 0
-7 8 -9 12 13 14 -17 18 19 0
-7 8 -9 12 13 -14 17 18 19 0
-7 8 -9 12 -13 14 17 -18 -19 0
-7 8 -9 12 -13 14 -17 18 -19 0
-7 8 -9 12 -13 14 -17 -18 19 0
-7 8 -9 12 -13 14 -17 -18 -19 0
-7 8 -9 12 -13 -14 17 18 -19 0
-7 8 -9 12 -13 -14 17 -18 19 0
-7 8 -9 12 -13 -14 17 -18 -19 0
-7 8 -9 12 -13 -14 -17 18 19 0
-7 8 -9 12 -13 -14 -17 18 -19 0
-7 8 -9 12 -13 -14 -17 -18 19 0
-7 8 -9 12 -13 -14 -17 -18 -19 0
-7 8 -9 -12 13 14 17 18 19 0
-7 8 -9 -12 -13 14 17 18 -19 0
-7 8 -9 -12 -13 14 17 -18 19 0
-7 8 -9 -12 -13 14 17 -18 -19 0
-7 8 -9 -12 -13 14 -17 18 19 0
-7 8 -9 -12 -13 14 -17 18 -19 0
-7 8 -9 -12 -13 14 -17 -18 19 0
-7 8 -9 -12 -13 14 -17 -18 -19 0
-7 8 -9 -12 -13 -14 17 18 19 0
-7 8 -9 -12 -13 -14 17 18 -19 0
-7 8 -9 -12 -13 -14 17 -18 19 0
-7 8 -9 -12 -13 -14 17 -18 -19 0
-7 8 -9 -12 -13 -14 -17 18 19 0
-7 8 -9 -12 -13 -14 -17 18 -19 0
-7 8 -9 -12 -13 -14 -17 -18 19 0
-7 8 -9 -12 -13 -14 -17 -18 -19 0
-7 -8 9 12 13 14 17 18 -19 0
-7 -8 9 12 13 14 17 -18 19 0
-7 -8 9 12 13 14 -17 18 19 0
-7 -8 9 12 13 -14 17 18 19 0
-7 -8 9 12 -13 14 17 -18 -19 0
-7 -8 9 12 -13 14 -17 18 -19 0
-7 -8 9 12 -13 14 -17 -18 19 0
-7 -8 9 12 -13 14 -17 -18 -19 0
-7 -8 9 12 -13 -14 17 18 -19 0
-7 -8 9 12 -13 -14 17 -18 19 0
-7 -8 9 12 -13 -14 17 -18 -19 0
-7 -8 9 12 -13 -14 -17 18 19 0
-7 -8 9 12 -13 -14 -17 18 -19 0
-7 -8 9 12 -13 -14 -17 -18 19 0
-7 -8 9 12 -13 -14 -17 -18 -19 0
-7 -8 9 -12 13 14 17 18 19 0
-7 -8 9 -12 -13 14 17 18 -19 0
-7 -8 9 -12 -13 14 17 -18 19 0
-7 -8 9 -12 -13 14 17 -18 -19 0
-7 -8 9 -12 -13 14 -17 18 19 0
-7 -8 9 -12 -13 14 -17 18 -19 0
-7 -8 9 -12 -13 14 -17 -18 19 0
-7 -8 9 -12 -13 14 -17 -18 -19 0
-7 -8 9 -12 -13 -14 17 18 19 0
-7 -8 9 -12 -13 -14 17 18 -19 0
-7 -8 9 -12 -13 -14 17 -18 19 0
-7 -8 9 -12 -13 -14 17 -18 -19 0
-7 -8 9 -12 -13 -14 -17 18 19 0
-7 -8 9 -12 -13 -14 -17 18 -19 0
-7 -8 9 -12 -13 -14 -17 -18 19 0
-7 -8 9 -12 -13 -14 -17 -18 -19 0
-7 -8 -9 12 13 14 17 18 19 0
-7 -8 -9 12 -13 14 17 18 -19 0
-7 -8 -9 12 -13 14 17 -18 19 0
-7 -8 -9 12 -13 14 17 -18 -19 0
-7 -8 -9 12 -13 14 -17 18 19 0
-7 -8 -9 12 -13 14 -17 18 -19 0
-7 -8 -9 12 -13 14 -17 -18 19 0
-7 -8 -9 12 -13 14 -17 -18 -19 0
-7 -8 -9 12 -13 -14 17 18 19 0
-7 -8 -9 12 -13 -14 17 18 -19 0
-7 -8 -9 12 -13 -14 17 -18 19 0
-7 -8 -9 12 -13 -14 17 -18 -19 0
-7 -8 -9 12 -13 -14 -17 18 19 0
-7 -8 -9 12 -13 -14 -17 18 -19 0
-7 -8 -9 12 -13 -14 -17 -18 19 0
-7 -8 -9 12 -13 -14 -17 -18 -19 0
-7 -8 -9 -12 -13 14 17 18 19 0
-7 -8 -9 -12 -13 14 17 18 -19 0
-7 -8 -9 -12 -13 14 17 -18 19 0
-7 -8 -9 -12 -13 14 17 -18 -19 0
-7 -8 -9 -12 -13 14 -17 18 19 0
-7 -8 -9 -12 -13 14 -17 18 -19 0
-7 -8 -9 -12 -13 14 -17 -18 19 0
-7 -8 -9 -12 -13 14 -17 -18 -19 0
-7 -8 -9 -12 -13 -14 17 18 19 0
-7 -8 -9 -12 -13 -14 17 18 -19 0
-7 -8 -9 -12 -13 -14 17 -18 19 0
-7 -8 -9 -12 -13 -14 17 -18 -19 0
-7 -8 -9 -12 -13 -14 -17 18 19 0
-7 -8 -9 -12 -13 -14 -17 18 -19 0
-7 -8 -9 -12 -13 -14 -17 -18 19 0
-7 -8 -9 -12 -13 -14 -17 -18 -19 0
8 9 10 13 14 15 -18 -19 -20 0
8 9 10 13 14 -15 18 -19 -20 0
8 9 10 13 14 -15 -18 19 -20 0
8 9 10 13 14 -15 -18 -19 20 0
8 9 10 13 -14 15 18 19 20 0
8 9 10 13 -14 15 18 19 -20 0
8 9 10 13 -14 15 18 -19 20 0
8 9 10 13 -14 15 -18 19 20 0
8 9 10 13 -14 -15 18 19 20 0
8 9 10 13 -14 -15 -18 -19 -20 0
8 9 10 -13 14 15 18 -19 -20 0
8 9 10 -13 14 15 -18 19 -20 0
8 9 10 -13 14 15 -18 -19 20 0
8 9 10 -13 14 -15 18 19 -20 0
8 9 10 -13 14 -15 18 -19 20 0
8 9 10 -13 14 -15 -18 19 20 0
8 9 10 -13 -14 15 18 19 20 0
8 9 10 -13 -14 15 -18 -19 -20 0
8 9 10 -13 -14 -15 18 -19 -20 0
8 9 10 -13 -14 -15 -18 19 -20 0
8 9 10 -13 -14 -15 -18 -19 20 0
8 9 10 -13 -14 -15 -18 -19 -20 0
8 9 -10 13 14 15 18 -19 -20 0
8 9 -10 13 14 15 -18 19 -20 0
8 9 -10 13 14 15 -18 -19 20 0
8 9 -10 13 14 -15 18 19 -20 0
8 9 -10 13 14 -15 18 -19 20 0
8 9 -10 13 14 -15 -18 19 20 0
8 9 -10 13 -14 15 18 19 20 0
8 9 -10 13 -14 15 -18 -19 -20 0
8 9 -10 13 -14 -15 18 -19 -20 0
8 9 -10 13 -14 -15 -18 19 -20 0
8 9 -10 13 -14 -15 -18 -19 20 0
8 9 -10 13 -14 -15 -18 -19 -20 0
8 9 -10 -13 14 15 18 19 -20 0
8 9 -10 -13 14 15 18 -19 20 0
8 9 -10 -13 14 15 -18 19 20 0
8 9 -10 -13 14 -15 18 19 20 0
8 9 -10 -13 -14 15 18 -19 -20 0
8 9 -10 -13 -14 15 -18 19 -20 0
8 9 -10 -13 -14 15 -18 -19 20 0
8 9 -10 -13 -14 15 -18 -19 -20 0
8 9 -10 -13 -14 -15 18 19 -20 0
8 9 -10 -13 -14 -15 18 -19 20 0
8 9 -10 -13 -14 -15 18 -19 -20 0
8 9 -10 -13 -14 -15 -18 19 20 0
8 9 -10 -13 -14 -15 -18 19 -20 0
8 9 -10 -13 -14 -15 -18 -19 20 0
8 9 -10 -13 -14 -15 -18 -19 -20 0
8 -9 10 13 14 15 18 -19 -20 0
8 -9 10 13 14 15 -18 19 -20 0
8 -9 10 13 14 15 -18 -19 20 0
8 -9 10 13 14 -15 18 19 -20 0
8 -9 10 13 14 -15 18 -19 20 0
8 -9 10 13 14 -15 -18 19 20 0
8 -9 10 13 -14 15 18 19 20 0
8 -9 10 13 -14 15 -18 -19 -20 0
8 -9 10 13 -14 -15 18 -19 -20 0
8 -9 10 13 -14 -15 -18 19 -20 0
8 -9 10 13 -14 -15 -18 -19 20 0
8 -9 10 13 -14 -15 -18 -19 -20 0
8 -9 10 -13 14 15 18 19 -20 0
8 -9 10 -13 14 15 18 -19 20 0
8 -9 10 -13 14 15 -18 19 20 0
8 -9 10 -13 14 -15 18 19 20 0
8 -9 10 -13 -14 15 18 -19 -20 0
8 -9 10 -13 -14 15 -18 19 -20 0
8 -9 10 -13 -14 15 -18 -19 20 0
8 -9 10 -13 -14 15 -18 -19 -20 0
8 -9 10 -13 -14 -15 18 19 -20 0
8 -9 10 -13 -14 -15 18 -19 20 0
8 -9 10 -13 -14 -15 18 -19 -20 0
8 -9 10 -13 -14 -15 -18 19 20 0
8 -9 10 -13 -14 -15 -18 19 -20 0
8 -9 10 -13 -14 -15 -18 -19 20 0
8 -9 10 -13 -14 -15 -18 -19 -20 0
8 -9 -10 13 14 15 18 19 -20 0
8 -9 -10 13 14 15 18 -19 20 0
8 -9 -10 13 14 15 -18 19 20 0
8 -9 -10 13 14 -15 18 19 20 0
8 -9 -10 13 -14 15 18 -19 -20 0
8 -9 -10 13 -14 15 -18 19 -20 0
8 -9 -10 13 -14 15 -18 -19 20 0
8 -9 -10 13 -14 15 -18 -19 -20 0
8 -9 -10 13 -14 -15 18 19 -20 0
8 -9 -10 13 -14 -15 18 -19 20 0
8 -9 -10 13 -14 -15 18 -19 -20 0
8 -9 -10 13 -14 -15 -18 19 20 0
8 -9 -10 13 -14 -15 -18 19 -20 0
8 -9 -10 13 -14 -15 -18 -19 20 0
8 -9 -10 13 -14 -15 -18 -19 -20 0
8 -9 -10 -13 14 15 18 19 20 0
8 -9 -10 -13 -14 15 18 19 -20 0
8 -9 -10 -13 -14 15 18 -19 20 0
8 -9 -10 -13 -14 15 18 -19 -20 0
8 -9 -10 -13 -14 15 -18 19 20 0
8 -9 -10 -13 -14 15 -18 19 -20 0
8 -9 -10 -13 -14 15 -18 -19 20 0
8 -9 -10 -13 -14 15 -18 -19 -20 0
8 -9 -10 -13 -14 -15 18 19 20 0
8 -9 -10 -13 -14 -15 18 19 -20 0
8 -9 -10 -13 -14 -15 18 -19 20 0
8 -9 -10 -13 -14 -15 18 -19 -20 0
8 -9 -10 -13 -14 -15 -18 19 20 0
8 -9 -10 -13 -14 -15 -18 19 -20 0
8 -9 -10 -13 -14 -15 -18 -19 20 0
8 -9 -10 -13 -14 -15 -18 -19 -20 0
-8 9 10 13 14 15 18 -19 -20 0
-8 9 10 13 14 15 -18 19 -20 0
-8 9 10 13 14 15 -18 -19 20 0
-8 9 10 13 14 -15 18 19 -20 0
-8 9 10 13 14 -15 18 -19 20 0
-8 9 10 13 14 -15 -18 19 20 0
-8 9 10 13 -14 15 18 19 20 0
-8 9 10 13 -14 15 -18 -19 -20 0
-8 9 10 13 -14 -15 18 -19 -20 0
-8 9 10 13 -14 -15 -18 19 -20 0
-8 9 10 13 -14 -15 -18 -19 20 0
-8 9 10 13 -14 -15 -18 -19 -20 0
-8 9 10 -13 14 15 18 19 -20 0
-8 9 10 -13 14 15 18 -19 20 0
-8 9 10 -13 14 15 -18 19 20 0
-8 9 10 -13 14 -15 18 19 20 0
-8 9 10 -13 -14 15 18 -19 -20 0
-8 9 10 -13 -14 15 -18 19 -20 0
-8 9 10 -13 -14 15 -18 -19 20 0
-8 9 10 -13 -14 15 -18 -19 -20 0
-8 9 10 -13 -14 -15 18 19 -20 0
-8 9 10 -13 -14 -15 18 -19 20 0
-8 9 10 -13 -14 -15 18 -19 -20 0
-8 9 10 -13 -14 -15 -18 19 20 0
-8 9 10 -13 -14 -15 -18 19 -20 0
-8 9 10 -13 -14 -15 -18 -19 20 0
-8 9 10 -13 -14 -15 -18 -19 -20 0
-8 9 -10 13 14 15 18 19 -20 0
-8 9 -10 13 14 15 18 -19 20 0
-8 9 -10 13 14 15 -18 19 20 0
-8 9 -10 13 14 -15 18 19 20 0
-8 9 -10 13 -14 15 18 -19 -20 0
-8 9 -10 13 -14 15 -18 19 -20 0
-8 9 -10 13 -14 15 -18 -19 20 0
-8 9 -10 13 -14 15 -18 -19 -20 0
-8 9 -10 13 -14 -15 18 19 -20 0
-8 9 -10 13 -14 -15 18 -19 20 0
-8 9 -10 13 -14 -15 18 -19 -20 0
-8 9 -10 13 -14 -15 -18 19 20 0
-8 9 -10 13 -14 -15 -18 19 -20 0
-8 9 -10 13 -14 -15 -18 -19 20 0
-8 9 -10 13 -14 -15 -18 -19 -20 0
-8 9 -10 -13 14 15 18 19 20 0
-8 9 -10 -13 -14 15 18 19 -20 0
-8 9 -10 -13 -14 15 18 -19 20 0
-8 9 -10 -13 -14 15 18 -19 -20 0
-8 9 -10 -13 -14 15 -18 19 20 0
-8 9 -10 -13 -14 15 -18 19 -20 0
-8 9 -10 -13 -14 15 -18 -19 20 0
-8 9 -10 -13 -14 15 -18 -19 -20 0
-8 9 -10 -13 -14 -15 18 19 20 0
-8 9 -10 -13 -14 -15 18 19 -20 0
-8 9 -10 -13 -14 -15 18 -19 20 0
-8 9 -10 -13 -14 -15 18 -19 -20 0
-8 9 -10 -13 -14 -15 -18 19 20 0
-8 9 -10 -13 -14 -15 -18 19 -20 0
-8 9 -10 -13 -14 -15 -18 -19 20 0
-8 9 -10 -13 -14 -15 -18 -19 -20 0
-8 -9 10 13 14 15 18 19 -20 0
-8 -9 10 13 14 15 18 -19 20 0
-8 -9 10 13 14 15 -18 19 20 0
-8 -9 10 13 14 -15 18 19 20 0
-8 -9 10 13 -14 15 18 -19 -20 0
-8 -9 10 13 -14 15 -18 19 -20 0
-8 -9 10 13 -14 15 -18 -19 20 0
-8 -9 10 13 -14 15 -18 -19 -20 0
-8 -9 10 13 -14 -15 18 19 -20 0
-8 -9 10 13 -14 -15 18 -19 20 0
-8 -9 10 13 -14 -15 18 -19 -20 0
-8 -9 10 13 -14 -15 -18 19 20 0
-8 -9 10 13 -14 -15 -18 19 -20 0
-8 -9 10 13 -14 -15 -18 -19 20 0
-8 -9 10 13 -14 -15 -18 -19 -20 0
-8 -9 10 -13 14 15 18 19 20 0
-8 -9 10 -13 -14 15 18 19 -20 0
-8 -9 10 -13 -14 15 18 -19 20 0
-8 -9 10 -13 -14 15 18 -19 -20 0
-8 -9 10 -13 -14 15 -18 19 20 0
-8 -9 10 -13 -14 15 -18 19 -20 0
-8 -9 10 -13 -14 15 -18 -19 20 0
-8 -9 10 -13 -14 15 -18 -19 -20 0
-8 -9 10 -13 -14 -15 18 19 20 0
-8 -9 10 -13 -14 -15 18 19 -20 0
-8 -9 10 -13 -14 -15 18 -19 20 0
-8 -9 10 -13 -14 -15 18 -19 -20 0
-8 -9 10 -13 -14 -15 -18 19 20 0
-8 -9 10 -13 -14 -15 -18 19 -20 0
-8 -9 10 -13 -14 -15 -18 -19 20 0
-8 -9 10 -13 -14 -15 -18 -19 -20 0
-8 -9 -10 13 14 15 18 19 20 0
-8 -9 -10 13 -14 15 18 19 -20 0
-8 -9 -10 13 -14 15 18 -19 20 0
-8 -9 -10 13 -14 15 18 -19 -20 0
-8 -9 -10 13 -14 15 -18 19 20 0
-8 -9 -10 13 -14 15 -18 19 -20 0
-8 -9 -10 13 -14 15 -18 -19 20 0
-8 -9 -10 13 -14 15 -18 -19 -20 0
-8 -9 -10 13 -14 -15 18 19 20 0
-8 -9 -10 13 -14 -15 18 19 -20 0
-8 -9 -10 13 -14 -15 18 -19 20 0
-8 -9 -10 13 -14 -15 18 -19 -20 0
-8 -9 -10 13 -14 -15 -18 19 20 0
-8 -9 -10 13 -14 -15 -18 19 -20 0
-8 -9 -10 13 -14 -15 -18 -19 20 0
-8 -9 -10 13 -14 -15 -18 -19 -20 0
-8 -9 -10 -13 -14 15 18 19 20 0
-8 -9 -10 -13 -14 15 18 19 -20 0
-8 -9 -10 -13 -14 15 18 -19 20 0
-8 -9 -10 -13 -14 15 18 -19 -20 0
-8 -9 -10 -13 -14 15 -18 19 20 0
-8 -9 -10 -13 -14 15 -18 19 -20 0
-8 -9 -10 -13 -14 15 -18 -19 20 0
-8 -9 -10 -13 -14 15 -18 -19 -20 0
-8 -9 -10 -13 -14 -15 18 19 20 0
-8 -9 -10 -13 -14 -15 18 19 -20 0
-8 -9 -10 -13 -14 -15 18 -19 20 0
-8 -9 -10 -13 -14 -15 18 -19 -20 0
-8 -9 -10 -13 -14 -15 -18 19 20 0
-8 -9 -10 -13 -14 -15 -18 19 -20 0
-8 -9 -10 -13 -14 -15 -18 -19 20 0
-8 -9 -10 -13 -14 -15 -18 -19 -20 0
9 10 14 -15 19 20 0
9 10 14 -15 19 -20 0
9 10 14 -15 -19 20 0
9 10 -14 15 -19 -20 0
9 10 -14 -15 19 20 0
9 -10 14 15 -19 -20 0
9 -10 14 -15 19 20 0
9 -10 -14 15 19 -20 0
9 -10 -14 15 -19 20 0
9 -10 -14 -15 -19 -20 0
-9 10 14 15 -19 -20 0
-9 10 14 -15 19 20 0
-9 10 -14 15 19 -20 0
-9 10 -14 15 -19 20 0
-9 10 -14 -15 -19 -20 0
-9 -10 14 15 19 -20 0
-9 -10 14 15 -19 20 0
-9 -10 14 -15 -19 -20 0
-9 -10 -14 15 19 20 0
-9 -10 -14 -15 19 -20 0
-9 -10 -14 -15 -19 20 0
-9 -10 -14 -15 -19 -20 0
-10 -15 -20 0
-11 -16 -21 0
11 12 16 -17 -21 -22 0
11 12 -16 17 21 22 0
11 12 -16 17 21 -22 0
11 12 -16 17 -21 22 0
11 12 -16 -17 21 22 0
11 -12 16 17 -21 -22 0
11 -12 16 -17 21 -22 0
11 -12 16 -17 -21 22 0
11 -12 -16 17 21 22 0
11 -12 -16 -17 -21 -22 0
-11 12 16 17 -21 -22 0
-11 12 16 -17 21 -22 0
-11 12 16 -17 -21 22 0
-11 12 -16 17 21 22 0
-11 12 -16 -17 -21 -22 0
-11 -12 16 17 21 -22 0
-11 -12 16 17 -21 22 0
-11 -12 16 -17 21 22 0
-11 -12 -16 17 -21 -22 0
-11 -12 -16 -17 21 -22 0
-11 -12 -16 -17 -21 22 0
-11 -12 -16 -17 -21 -22 0
11 12 13 16 17 18 -21 -22 -23 0
11 12 13 16 17 -18 21 -22 -23 0
11 12 13 16 17 -18 -21 22 -23 0
11 12 13 16 17 -18 -21 -22 23 0
11 12 13 16 -17 18 21 22 23 0
11 12 13 16 -17 18 21 22 -23 0
11 12 13 16 -17 18 21 -22 23 0
11 12 13 16 -17 18 -21 22 23 0
11 12 13 16 -17 -18 21 22 23 0
11 12 13 16 -17 -18 -21 -22 -23 0
11 12 13 -16 17 18 21 -22 -23 0
11 12 13 -16 17 18 -21 22 -23 0
11 12 13 -16 17 18 -21 -22 23 0
11 12 13 -16 17 -18 21 22 -23 0
11 12 13 -16 17 -18 21 -22 23 0
11 12 13 -16 17 -18 -21 22 23 0
11 12 13 -16 -17 18 21 22 23 0
11 12 13 -16 -17 18 -21 -22 -23 0
11 12 13 -16 -17 -18 21 -22 -23 0
11 12 13 -16 -17 -18 -21 22 -23 0
11 12 13 -16 -17 -18 -21 -22 23 0
11 12 13 -16 -17 -18 -21 -22 -23 0
11 12 -13 16 17 18 21 -22 -23 0
11 12 -13 16 17 18 -21 22 -23 0
11 12 -13 16 17 18 -21 -22 23 0
11 12 -13 16 17 -18 21 22 -23 0
11 12 -13 16 17 -18 21 -22 23 0
11 12 -13 16 17 -18 -21 22 23 0
11 12 -13 16 -17 18 21 22 23 0
11 12 -13 16 -17 18 -21 -22 -23 0
11 12 -13 16 -17 -18 21 -22 -23 0
11 12 -13 16 -17 -18 -21 22 -23 0
11 12 -13 16 -17 -18 -21 -22 23 0
11 12 -13 16 -17 -18 -21 -22 -23 0
11 12 -13 -16 17 18 21 22 -23 0
11 12 -13 -16 17 18 21 -22 23 0
11 12 -13 -16 17 18 -21 22 23 0
11 12 -13 -16 17 -18 21 22 23 0
11 12 -13 -16 -17 18 21 -22 -23 0
11 12 -13 -16 -17 18 -21 22 -23 0
11 12 -13 -16 -17 18 -21 -22 23 0
11 12 -13 -16 -17 18 -21 -22 -23 0
11 12 -13 -16 -17 -18 21 22 -23 0
11 12 -13 -16 -17 -18 21 -22 23 0
11 12 -13 -16 -17 -18 21 -22 -23 0
11 12 -13 -16 -17 -18 -21 22 23 0
11 12 -13 -16 -17 -18 -21 22 -23 0
11 12 -13 -16 -17 -18 -21 -22 23 0
11 12 -13 -16 -17 -18 -21 -22 -23 0
11 -12 13 16 17 18 21 -22 -23 0
11 -12 13 16 17 18 -21 22 -23 0
11 -12 13 16 17 18 -21 -22 23 0
11 -12 13 16 17 -18 21 22 -23 0
11 -12 13 16 17 -18 21 -22 23 0
11 -12 13 16 17 -18 -21 22 23 0
11 -12 13 16 -17 18 21 22 23 0
11 -12 13 16 -17 18 -21 -22 -23 0
11 -12 13 16 -17 -18 21 -22 -23 0
11 -12 13 16 -17 -18 -21 22 -23 0
11 -12 13 16 -17 -18 -21 -22 23 0
11 -12 13 16 -17 -18 -21 -22 -23 0
11 -12 13 -16 17 18 21 22 -23 0
11 -12 13 -16 17 18 21 -22 23 0
11 -12 13 -16 17 18 -21 22 23 0
11 -12 13 -16 17 -18 21 22 23 0
11 -12 13 -16 -17 18 21 -22 -23 0
11 -12 13 -16 -17 18 -21 22 -23 0
11 -12 13 -16 -17 18 -21 -22 23 0
11 -12 13 -16 -17 18 -21 -22 -23 0
11 -12 13 -16 -17 -18 21 22 -23 0
11 -12 13 -16 -17 -18 21 -22 23 0
11 -12 13 -16 -17 -18 21 -22 -23 0
11 -12 13 -16 -17 -18 -21 22 23 0
11 -12 13 -16 -17 -18 -21 22 -23 0
11 -12 13 -16 -17 -18 -21 -22 23 0
11 -12 13 -16 -17 -18 -21 -22 -23 0
11 -12 -13 16 17 18 21 22 -23 0
11 -12 -13 16 17 18 21 -22 23 0
11 -12 -13 16 17 18 -21 22 23 0
11 -12 -13 16 17 -18 21 22 23 0
11 -12 -13 16 -17 18 21 -22 -23 0
11 -12 -13 16 -17 18 -21 22 -23 0
11 -12 -13 16 -17 18 -21 -22 23 0
11 -12 -13 16 -17 18 -21 -22 -23 0
11 -12 -13 16 -17 -18 21 22 -23 0
11 -12 -13 16 -17 -18 21 -22 23 0
11 -12 -13 16 -17 -18 21 -22 -23 0
11 -12 -13 16 -17 -18 -21 22 23 0
11 -12 -13 16 -17 -18 -21 22 -23 0
11 -12 -13 16 -17 -18 -21 -22 23 0
11 -12 -13 16 -17 -18 -21 -22 -23 0
11 -12 -13 -16 17 18 21 22 23 0
11 -12 -13 -16 -17 18 21 22 -23 0
11 -12 -13 -16 -17 18 21 -22 23 0
11 -12 -13 -16 -17 18 21 -22 -23 0
11 -12 -13 -16 -17 18 -21 22 23 0
11 -12 -13 -16 -17 18 -21 22 -23 0
11 -12 -13 -16 -17 18 -21 -22 23 0
11 -12 -13 -16 -17 18 -21 -22 -23 0
11 -12 -13 -16 -17 -18 21 22 23 0
11 -12 -13 -16 -17 -18 21 22 -23 0
11 -12 -13 -16 -17 -18 21 -22 23 0
11 -12 -13 -16 -17 -18 21 -22 -23 0
11 -12 -13 -16 -17 -18 -21 22 23 0
11 -12 -13 -16 -17 -18 -21 22 -23 0
11 -12 -13 -16 -17 -18 -21 -22 23 0
11 -12 -13 -16 -17 -18 -21 -22 -23 0
-11 12 13 16 17 18 21 -22 -23 0
-11 12 13 16 17 18 -21 22 -23 0
-11 12 13 16 17 18 -21 -22 23 0
-11 12 13 16 17 -18 21 22 -23 0
-11 12 13 16 17 -18 21 -22 23 0
-11 12 13 16 17 -18 -21 22 23 0
-11 12 13 16 -17 18 21 22 23 0
-11 12 13 16 -17 18 -21 -22 -23 0
-11 12 13 16 -17 -18 21 -22 -23 0
-11 12 13 16 -17 -18 -21 22 -23 0
-11 12 13 16 -17 -18 -21 -22 23 0
-11 12 13 16 -17 -18 -21 -22 -23 0
-11 12 13 -16 17 18 21 22 -23 0
-11 12 13 -16 17 18 21 -22 23 0
-11 12 13 -16 17 18 -21 22 23 0
-11 12 13 -16 17 -18 21 22 23 0
-11 12 13 -16 -17 18 21 -22 -23 0
-11 12 13 -16 -17 18 -21 22 -23 0
-11 12 13 -16 -17 18 -21 -22 23 0
-11 12 13 -16 -17 18 -21 -22 -23 0
-11 12 13 -16 -17 -18 21 22 -23 0
-11 12 13 -16 -17 -18 21 -22 23 0
-11 12 13 -16 -17 -18 21 -22 -23 0
-11 12 13 -16 -17 -18 -21 22 23 0
-11 12 13 -16 -17 -18 -21 22 -23 0
-11 12 13 -16 -17 -18 -21 -22 23 0
-11 12 13 -16 -17 -18 -21 -22 -23 0
-11 12 -13 16 17 18 21 22 -23 0
-11 12 -13 16 17 18 21 -22 23 0
-11 12 -13 16 17 18 -21 22 23 0
-11 12 -13 16 17 -18 21 22 23 0
-11 12 -13 16 -17 18 21 -22 -23 0
-11 12 -13 16 -17 18 -21 22 -23 0
-11 12 -13 16 -17 18 -21 -22 23 0
-11 12 -13 16 -17 18 -21 -22 -23 0
-11 12 -13 16 -17 -18 21 22 -23 0
-11 12 -13 16 -17 -18 21 -22 23 0
-11 12 -13 16 -17 -18 21 -22 -23 0
-11 12 -13 16 -17 -18 -21 22 23 0
-11 12 -13 16 -17 -18 -21 22 -23 0
-11 12 -13 16 -17 -18 -21 -22 23 0
-11 12 -13 16 -17 -18 -21 -22 -23 0
-11 12 -13 -16 17 18 21 22 23 0
-11 12 -13 -16 -17 18 21 22 -23 0
-11 12 -13 -16 -17 18 21 -22 23 0
-11 12 -13 -16 -17 18 21 -22 -23 0
-11 12 -13 -16 -17 18 -21 22 23 0
-11 12 -13 -16 -17 18 -21 22 -23 0
-11 12 -13 -16 -17 18 -21 -22 23 0
-11 12 -13 -16 -17 18 -21 -22 -23 0
-11 12 -13 -16 -17 -18 21 22 23 0
-11 12 -13 -16 -17 -18 21 22 -23 0
-11 12 -13 -16 -17 -18 21 -22 23 0
-11 12 -13 -16 -17 -18 21 -22 -23 0
-11 12 -13 -16 -17 -18 -21 22 23 0
-11 12 -13 -16 -17 -18 -21 22 -23 0
-11 12 -13 -16 -17 -18 -21 -22 23 0
-11 12 -13 -16 -17 -18 -21 -22 -23 0
-11 -12 13 16 17 18 21 22 -23 0
-11 -12 13 16 17 18 21 -22 23 0
-11 -12 13 16 17 18 -21 22 23 0
-11 -12 13 16 17 -18 21 22 23 0
-11 -12 13 16 -17 18 21 -22 -23 0
-11 -12 13 16 -17 18 -21 22 -23 0
-11 -12 13 16 -17 18 -21 -22 23 0
-11 -12 13 16 -17 18 -21 -22 -23 0
-11 -12 13 16 -17 -18 21 22 -23 0
-11 -12 13 16 -17 -18 21 -22 23 0
-11 -12 13 16 -17 -18 21 -22 -23 0
-11 -12 13 16 -17 -18 -21 22 23 0
-11 -12 13 16 -17 -18 -21 22 -23 0
-11 -12 13 16 -17 -18 -21 -22 23 0
-11 -12 13 16 -17 -18 -21 -22 -23 0
-11 -12 13 -16 17 18 21 22 23 0
-11 -12 13 -16 -17 18 21 22 -23 0
-11 -12 13 -16 -17 18 21 -22 23 0
-11 -12 13 -16 -17 18 21 -22 -23 0
-11 -12 13 -16 -17 18 -21 22 23 0
-11 -12 13 -16 -17 18 -21 22 -23 0
-11 -12 13 -16 -17 18 -21 -22 23 0
-11 -12 13 -16 -17 18 -21 -22 -23 0
-11 -12 13 -16 -17 -18 21 22 23 0
-11 -12 13 -16 -17 -18 21 22 -23 0
-11 -12 13 -16 -17 -18 21 -22 23 0
-11 -12 13 -16 -17 -18 21 -22 -23 0
-11 -12 13 -16 -17 -18 -21 22 23 0
-11 -12 13 -16 -17 -18 -21 22 -23 0
-11 -12 13 -16 -17 -18 -21 -22 23 0
-11 -12 13 -16 -17 -18 -21 -22 -23 0
-11 -12 -13 16 17 18 21 22 23 0
-11 -12 -13 16 -17 18 21 22 -23 0
-11 -12 -13 16 -17 18 21 -22 23 0
-11 -12 -13 16 -17 18 21 -22 -23 0
-11 -12 -13 16 -17 18 -21 22 23 0
-11 -12 -13 16 -17 18 -21 22 -23 0
-11 -12 -13 16 -17 18 -21 -22 23 0
-11 -12 -13 16 -17 18 -21 -22 -23 0
-11 -12 -13 16 -17 -18 21 22 23 0
-11 -12 -13 16 -17 -18 21 22 -23 0
-11 -12 -13 16 -17 -18 21 -22 23 0
-11 -12 -13 16 -17 -18 21 -22 -23 0
-11 -12 -13 16 -17 -18 -21 22 23 0
-11 -12 -13 16 -17 -18 -21 22 -23 0
-11 -12 -13 16 -17 -18 -21 -22 23 0
-11 -12 -13 16 -17 -18 -21 -22 -23 0
-11 -12 -13 -16 -17 18 21 22 23 0
-11 -12 -13 -16 -17 18 21 22 -23 0
-11 -12 -13 -16 -17 18 21 -22 23 0
-11 -12 -13 -16 -17 18 21 -22 -23 0
-11 -12 -13 -16 -17 18 -21 22 23 0
-11 -12 -13 -16 -17 18 -21 22 -23 0
-11 -12 -13 -16 -17 18 -21 -22 23 0
-11 -12 -13 -16 -17 18 -21 -22 -23 0
-11 -12 -13 -16 -17 -18 21 22 23 0
-11 -12 -13 -16 -17 -18 21 22 -23 0
-11 -12 -13 -16 -17 -18 21 -22 23 0
-11 -12 -13 -16 -17 -18 21 -22 -23 0
-11 -12 -13 -16 -17 -18 -21 22 23 0
-11 -12 -13 -16 -17 -18 -21 22 -23 0
-11 -12 -13 -16 -17 -18 -21 -22 23 0
-11 -12 -13 -16 -17 -18 -21 -22 -23 0
12 13 14 17 18 19 -22 -23 -24 0
12 13 14 17 18 -19 22 -23 -24 0
12 13 14 17 18 -19 -22 23 -24 0
12 13 14 17 18 -19 -22 -23 24 0
12 13 14 17 -18 19 22 23 24 0
12 13 14 17 -18 19 22 23 -24 0
12 13 14 17 -18 19 22 -23 24 0
12 13 14 17 -18 19 -22 23 24 0
12 13 14 17 -18 -19 22 23 24 0
12 13 14 17 -18 -19 -22 -23 -24 0
12 13 14 -17 18 19 22 -23 -24 0
12 13 14 -17 18 19 -22 23 -24 0
12 13 14 -17 18 19 -22 -23 24 0
12 13 14 -17 18 -19 22 23 -24 0
12 13 14 -17 18 -19 22 -23 24 0
12 13 14 -17 18 -19 -22 23 24 0
12 13 14 -17 -18 19 22 23 24 0
12 13 14 -17 -18 19 -22 -23 -24 0
12 13 14 -17 -18 -19 22 -23 -24 0
12 13 14 -17 -18 -19 -22 23 -24 0
12 13 14 -17 -18 -19 -22 -23 24 0
12 13 14 -17 -18 -19 -22 -23 -24 0
12 13 -14 17 18 19 22 -23 -24 0
12 13 -14 17 18 19 -22 23 -24 0
12 13 -14 17 18 19 -22 -23 24 0
12 13 -14 17 18 -19 22 23 -24 0
12 13 -14 17 18 -19 22 -23 24 0
12 13 -14 17 18 -19 -22 23 24 0
12 13 -14 17 -18 19 22 23 24 0
12 13 -14 17 -18 19 -22 -23 -24 0
12 13 -14 17 -18 -19 22 -23 -24 0
12 13 -14 17 -18 -19 -22 23 -24 0
12 13 -14 17 -18 -19 -22 -23 24 0
12 13 -14 17 -18 -19 -22 -23 -24 0
12 13 -14 -17 18 19 22 23 -24 0
12 13 -14 -17 18 19 22 -23 24 0
12 13 -14 -17 18 19 -22 23 24 0
12 13 -14 -17 18 -19 22 23 24 0
12 13 -14 -17 -18 19 22 -23 -24 0
12 13 -14 -17 -18 19 -22 23 -24 0
12 13 -14 -17 -18 19 -22 -23 24 0
12 13 -14 -17 -18 19 -22 -23 -24 0
12 13 -14 -17 -18 -19 22 23 -24 0
12 13 -14 -17 -18 -19 22 -23 24 0
12 13 -14 -17 -18 -19 22 -23 -24 0
12 13 -14 -17 -18 -19 -22 23 24 0
12 13 -14 -17 -18 -19 -22 23 -24 0
12 13 -14 -17 -18 -19 -22 -23 24 0
12 13 -14 -17 -18 -19 -22 -23 -24 0
12 -13 14 17 18 19 22 -23 -24 0
12 -13 14 17 18 19 -22 23 -24 0
12 -13 14 17 18 19 -22 -23 24 0
12 -13 14 17 18 -19 22 23 -24 0
12 -13 14 17 18 -19 22 -23 24 0
12 -13 14 17 18 -19 -22 23 24 0
12 -13 14 17 -18 19 22 23 24 0
12 -13 14 17 -18 19 -22 -23 -24 0
12 -13 14 17 -18 -19 22 -23 -24 0
12 -13 14 17 -18 -19 -22 23 -24 0
12 -13 14 17 -18 -19 -22 -23 24 0
12 -13 14 17 -18 -19 -22 -23 -24 0
12 -13 14 -17 18 19 22 23 -24 0
12 -13 14 -17 18 19 22 -23 24 0
12 -13 14 -17 18 19 -22 23 24 0
12 -13 14 -17 18 -19 22 23 24 0
12 -13 14 -17 -18 19 22 -23 -24 0
12 -13 14 -17 -18 19 -22 23 -24 0
12 -13 14 -17 -18 19 -22 -23 24 0
12 -13 14 -17 -18 19 -22 -23 -24 0
12 -13 14 -17 -18 -19 22 23 -24 0
12 -13 14 -17 -18 -19 22 -23 24 0
12 -13 14 -17 -18 -19 22 -23 -24 0
12 -13 14 -17 -18 -19 -22 23 24 0
12 -13 14 -17 -18 -19 -22 23 -24 0
12 -13 14 -17 -18 -19 -22 -23 24 0
12 -13 14 -17 -18 -19 -22 -23 -24 0
12 -13 -14 17 18 19 22 23 -24 0
12 -13 -14 17 18 19 22 -23 24 0
12 -13 -14 17 18 19 -22 23 24 0
12 -13 -14 17 18 -19 22 23 24 0
12 -13 -14 17 -18 19 22 -23 -24 0
12 -13 -14 17 -18 19 -22 23 -24 0
12 -13 -14 17 -18 19 -22 -23 24 0
12 -13 -14 17 -18 19 -22 -23 -24 0
12 -13 -14 17 -18 -19 22 23 -24 0
12 -13 -14 17 -18 -19 22 -23 24 0
12 -13 -14 17 -18 -19 22 -23 -24 0
12 -13 -14 17 -18 -19 -22 23 24 0
12 -13 -14 17 -18 -19 -22 23 -24 0
12 -13 -14 17 -18 -19 -22 -23 24 0
12 -13 -14 17 -18 -19 -22 -23 -24 0
12 -13 -14 -17 18 19 22 23 24 0
12 -13 -14 -17 -18 19 22 23 -24 0
12 -13 -14 -17 -18 19 22 -23 24 0
12 -13 -14 -17 -18 19 22 -23 -24 0
12 -13 -14 -17 -18 19 -22 23 24 0
12 -13 -14 -17 -18 19 -22 23 -24 0
12 -13 -14 -17 -18 19 -22 -23 24 0
12 -13 -14 -17 -18 19 -22 -23 -24 0
12 -13 -14 -17 -18 -19 22 23 24 0
12 -13 -14 -17 -18 -19 22 23 -24 0
12 -13 -14 -17 -18 -19 22 -23 24 0
12 -13 -14 -17 -18 -19 22 -23 -24 0
12 -13 -14 -17 -18 -19 -22 23 24 0
12 -13 -14 -17 -18 -19 -22 23 -24 0
12 -13 -14 -17 -18 -19 -22 -23 24 0
12 -13 -14 -17 -18 -19 -22 -23 -24 0
-12 13 14 17 18 19 22 -23 -24 0
-12 13 14 17 18 19 -22 23 -24 0
-12 13 14 17 18 19 -22 -23 24 0
-12 13 14 17 18 -19 22 23 -24 0
-12 13 14 17 18 -19 22 -23 24 0
-12 13 14 17 18 -19 -22 23 24 0
-12 13 14 17 -18 19 22 23 24 0
-12 13 14 17 -18 19 -22 -23 -24 0
-12 13 14 17 -18 -19 22 -23 -24 0
-12 13 14 17 -18 -19 -22 23 -24 0
-12 13 14 17 -18 -19 -22 -23 24 0
-12 13 14 17 -18 -19 -22 -23 -24 0
-12 13 14 -17 18 19 22 23 -24 0
-12 13 14 -17 18 19 22 -23 24 0
-12 13 14 -17 18 19 -22 23 24 0
-12 13 14 -17 18 -19 22 23 24 0
-12 13 14 -17 -18 19 22 -23 -24 0
-12 13 14 -17 -18 19 -22 23 -24 0
-12 13 14 -17 -18 19 -22 -23 24 0
-12 13 14 -17 -18 19 -22 -23 -24 0
-12 13 14 -17 -18 -19 22 23 -24 0
-12 13 14 -17 -18 -19 22 -23 24 0
-12 13 14 -17 -18 -19 22 -23 -24 0
-12 13 14 -17 -18 -19 -22 23 24 0
-12 13 14 -17 -18 -19 -22 23 -24 0
-12 13 14 -17 -18 -19 -22 -23 24 0
-12 13 14 -17 -18 -19 -22 -23 -24 0
-12 13 -14 17 18 19 22 23 -24 0
-12 13 -14 17 18 19 22 -23 24 0
-12 13 -14 17 18 19 -22 23 24 0
-12 13 -14 17 18 -19 22 23 24 0
-12 13 -14 17 -18 19 22 -23 -24 0
-12 13 -14 17 -18 19 -22 23 -24 0
-12 13 -14 17 -18 19 -22 -23 24 0
-12 13 -14 17 -18 19 -22 -23 -24 0
-12 13 -14 17 -18 -19 22 23 -24 0
-12 13 -14 17 -18 -19 22 -23 24 0
-12 13 -14 17 -18 -19 22 -23 -24 0
-12 13 -14 17 -18 -19 -22 23 24 0
-12 13 -14 17 -18 -19 -22 23 -24 0
-12 13 -14 17 -18 -19 -22 -23 24 0
-12 13 -14 17 -18 -19 -22 -23 -24 0
-12 13 -14 -17 18 19 22 23 24 0
-12 13 -14 -17 -18 19 22 23 -24 0
-12 13 -14 -17 -18 19 22 -23 24 0
-12 13 -14 -17 -18 19 22 -23 -24 0
-12 13 -14 -17 -18 19 -22 23 24 0
-12 13 -14 -17 -18 19 -22 23 -24 0
-12 13 -14 -17 -18 19 -22 -23 24 0
-12 13 -14 -17 -18 19 -22 -23 -24 0
-12 13 -14 -17 -18 -19 22 23 24 0
-12 13 -14 -17 -18 -19 22 23 -24 0
-12 13 -14 -17 -18 -19 22 -23 24 0
-12 13 -14 -17 -18 -19 22 -23 -24 0
-12 13 -14 -17 -18 -19 -22 23 24 0
-12 13 -14 -17 -18 -19 -22 23 -24 0
-12 13 -14 -17 -18 -19 -22 -23 24 0
-12 13 -14 -17 -18 -19 -22 -23 -24 0
-12 -13 14 17 18 19 22 23 -24 0
-12 -13 14 17 18 19 22 -23 24 0
-12 -13 14 17 18 19 -22 23 24 0
-12 -13 14 17 18 -19 22 23 24 0
-12 -13 14 17 -18 19 22 -23 -24 0
-12 -13 14 17 -18 19 -22 23 -24 0
-12 -13 14 17 -18 19 -22 -23 24 0
-12 -13 14 17 -18 19 -22 -23 -24 0
-12 -13 14 17 -18 -19 22 23 -24 0
-12 -13 14 17 -18 -19 22 -23 24 0
-12 -13 14 17 -18 -19 22 -23 -24 0
-12 -13 14 17 -18 -19 -22 23 24 0
-12 -13 14 17 -18 -19 -22 23 -24 0
-12 -13 14 17 -18 -19 -22 -23 24 0
-12 -13 14 17 -18 -19 -22 -23 -24 0
-12 -13 14 -17 18 19 22 23 24 0
-12 -13 14 -17 -18 19 22 23 -24 0
-12 -13 14 -17 -18 19 22 -23 24 0
-12 -13 14 -17 -18 19 22 -23 -24 0
-12 -13 14 -17 -18 19 -22 23 24 0
-12 -13 14 -17 -18 19 -22 23 -24 0
-12 -13 14 -17 -18 19 -22 -23 24 0
-12 -13 14 -17 -18 19 -22 -23 -24 0
-12 -13 14 -17 -18 -19 22 23 24 0
-12 -13 14 -17 -18 -19 22 23 -24 0
-12 -13 14 -17 -18 -19 22 -23 24 0
-12 -13 14 -17 -18 -19 22 -23 -24 0
-12 -13 14 -17 -18 -19 -22 23 24 0
-12 -13 14 -17 -18 -19 -22 23 -24 0
-12 -13 14 -17 -18 -19 -22 -23 24 0
-12 -13 14 -17 -18 -19 -22 -23 -24 0
-12 -13 -14 17 18 19 22 23 24 0
-12 -13 -14 17 -18 19 22 23 -24 0
-12 -13 -14 17 -18 19 22 -23 24 0
-12 -13 -14 17 -18 19 22 -23 -24 0
-12 -13 -14 17 -18 19 -22 23 24 0
-12 -13 -14 17 -18 19 -22 23 -24 0
-12 -13 -14 17 -18 19 -22 -23 24 0
-12 -13 -14 17 -18 19 -22 -23 -24 0
-12 -13 -14 17 -18 -19 22 23 24 0
-12 -13 -14 17 -18 -19 22 23 -24 0
-12 -13 -14 17 -18 -19 22 -23 24 0
-12 -13 -14 17 -18 -19 22 -23 -24 0
-12 -13 -14 17 -18 -19 -22 23 24 0
-12 -13 -14 17 -18 -19 -22 23 -24 0
-12 -13 -14 17 -18 -19 -22 -23 24 0
-12 -13 -14 17 -18 -19 -22 -23 -24 0
-12 -13 -14 -17 -18 19 22 23 24 0
-12 -13 -14 -17 -18 19 22 23 -24 0
-12 -13 -14 -17 -18 19 22 -23 24 0
-12 -13 -14 -17 -18 19 22 -23 -24 0
-12 -13 -14 -17 -18 19 -22 23 24 0
-12 -13 -14 -17 -18 19 -22 23 -24 0
-12 -13 -14 -17 -18 19 -22 -23 24 0
-12 -13 -14 -17 -18 19 -22 -23 -24 0
-12 -13 -14 -17 -18 -19 22 23 24 0
-12 -13 -14 -17 -18 -19 22 23 -24 0
-12 -13 -14 -17 -18 -19 22 -23 24 0
-12 -13 -14 -17 -18 -19 22 -23 -24 0
-12 -13 -14 -17 -18 -19 -22 23 24 0
-12 -13 -14 -17 -18 -19 -22 23 -24 0
-12 -13 -14 -17 -18 -19 -22 -23 24 0
-12 -13 -14 -17 -18 -19 -22 -23 -24 0
13 14 15 18 19 20 -23 -24 -25 0
13 14 15 18 19 -20 23 -24 -25 0
13 14 15 18 19 -20 -23 24 -25 0
13 14 15 18 19 -20 -23 -24 25 0
13 14 15 18 -19 20 23 24 25 0
13 14 15 18 -19 20 23 24 -25 0
13 14 15 18 -19 20 23 -24 25 0
13 14 15 18 -19 20 -23 24 25 0
13 14 15 18 -19 -20 23 24 25 0
13 14 15 18 -19 -20 -23 -24 -25 0
13 14 15 -18 19 20 23 -24 -25 0
13 14 15 -18 19 20 -23 24 -25 0
13 14 15 -18 19 20 -23 -24 25 0
13 14 15 -18 19 -20 23 24 -25 0
13 14 15 -18 19 -20 23 -24 25 0
13 14 15 -18 19 -20 -23 24 25 0
13 14 15 -18 -19 20 23 24 25 0
13 14 15 -18 -19 20 -23 -24 -25 0
13 14 15 -18 -19 -20 23 -24 -25 0
13 14 15 -18 -19 -20 -23 24 -25 0
13 14 15 -18 -19 -20 -23 -24 25 0
13 14 15 -18 -19 -20 -23 -24 -25 0
13 14 -15 18 19 20 23 -24 -25 0
13 14 -15 18 19 20 -23 24 -25 0
13 14 -15 18 19 20 -23 -24 25 0
13 14 -15 18 19 -20 23 24 -25 0
13 14 -15 18 19 -20 23 -24 25 0
13 14 -15 18 19 -20 -23 24 25 0
13 14 -15 18 -19 20 23 24 25 0
13 14 -15 18 -19 20 -23 -24 -25 0
13 14 -15 18 -19 -20 23 -24 -25 0
13 14 -15 18 -19 -20 -23 24 -25 0
13 14 -15 18 -19 -20 -23 -24 25 0
13 14 -15 18 -19 -20 -23 -24 -25 0
13 14 -15 -18 19 20 23 24 -25 0
13 14 -15 -18 19 20 23 -24 25 0
13 14 -15 -18 19 20 -23 24 25 0
13 14 -15 -18 19 -20 23 24 25 0
13 14 -15 -18 -19 20 23 -24 -25 0
13 14 -15 -18 -19 20 -23 24 -25 0
13 14 -15 -18 -19 20 -23 -24 25 0
13 14 -15 -18 -19 20 -23 -24 -25 0
13 14 -15 -18 -19 -20 23 24 -25 0
13 14 -15 -18 -19 -20 23 -24 25 0
13 14 -15 -18 -19 -20 23 -24 -25 0
13 14 -15 -18 -19 -20 -23 24 25 0
13 14 -15 -18 -19 -20 -23 24 -25 0
13 14 -15 -18 -19 -20 -23 -24 25 0
13 14 -15 -18 -19 -20 -23 -24 -25 0
13 -14 15 18 19 20 23 -24 -25 0
13 -14 15 18 19 20 -23 24 -25 0
13 -14 15 18 19 20 -23 -24 25 0
13 -14 15 18 19 -20 23 24 -25 0
13 -14 15 18 19 -20 23 -24 25 0
13 -14 15 18 19 -20 -23 24 25 0
13 -14 15 18 -19 20 23 24 25 0
13 -14 15 18 -19 20 -23 -24 -25 0
13 -14 15 18 -19 -20 23 -24 -25 0
13 -14 15 18 -19 -20 -23 24 -25 0
13 -14 15 18 -19 -20 -23 -24 25 0
13 -14 15 18 -19 -20 -23 -24 -25 0
13 -14 15 -18 19 20 23 24 -25 0
13 -14 15 -18 19 20 23 -24 25 0
13 -14 15 -18 19 20 -23 24 25 0
13 -14 15 -18 19 -20 23 24 25 0
13 -14 15 -18 -19 20 23 -24 -25 0
13 -14 15 -18 -19 20 -23 24 -25 0
13 -14 15 -18 -19 20 -23 -24 25 0
13 -14 15 -18 -19 20 -23 -24 -25 0
13 -14 15 -18 -19 -20 23 24 -25 0
13 -14 15 -18 -19 -20 23 -24 25 0
13 -14 15 -18 -19 -20 23 -24 -25 0
13 -14 15 -18 -19 -20 -23 24 25 0
13 -14 15 -18 -19 -20 -23 24 -25 0
13 -14 15 -18 -19 -20 -23 -24 25 0
13 -14 15 -18 -19 -20 -23 -24 -25 0
13 -14 -15 18 19 20 23 24 -25 0
13 -14 -15 18 19 20 23 -24 25 0
13 -14 -15 18 19 20 -23 24 25 0
13 -14 -15 18 19 -20 23 24 25 0
13 -14 -15 18 -19 20 23 -24 -25 0
13 -14 -15 18 -19 20 -23 24 -25 0
13 -14 -15 18 -19 20 -23 -24 25 0
13 -14 -15 18 -19 20 -23 -24 -25 0
13 -14 -15 18 -19 -20 23 24 -25 0
13 -14 -15 18 -19 -20 23 -24 25 0
13 -14 -15 18 -19 -20 23 -24 -25 0
13 -14 -15 18 -19 -20 -23 24 25 0
13 -14 -15 18 -19 -20 -23 24 -25 0
13 -14 -15 18 -19 -20 -23 -24 25 0
13 -14 -15 18 -19 -20 -23 -24 -25 0
13 -14 -15 -18 19 20 23 24 25 0
13 -14 -15 -18 -19 20 23 24 -25 0
13 -14 -15 -18 -19 20 23 -24 25 0
13 -14 -15 -18 -19 20 23 -24 -25 0
13 -14 -15 -18 -19 20 -23 24 25 0
13 -14 -15 -18 -19 20 -23 24 -25 0
13 -14 -15 -18 -19 20 -23 -24 25 0
13 -14 -15 -18 -19 20 -23 -24 -25 0
13 -14 -15 -18 -19 -20 23 24 25 0
13 -14 -15 -18 -19 -20 23 24 -25 0
13 -14 -15 -18 -19 -20 23 -24 25 0
13 -14 -15 -18 -19 -20 23 -24 -25 0
13 -14 -15 -18 -19 -20 -23 24 25 0
13 -14 -15 -18 -19 -20 -23 24 -25 0
13 -14 -15 -18 -19 -20 -23 -24 25 0
13 -14 -15 -18 -19 -20 -23 -24 -25 0
-13 14 15 18 19 20 23 -24 -25 0
-13 14 15 18 19 20 -23 24 -25 0
-13 14 15 18 19 20 -23 -24 25 0
-13 14 15 18 19 -20 23 24 -25 0
-13 14 15 18 19 -20 23 -24 25 0
-13 14 15 18 19 -20 -23 24 25 0
-13 14 15 18 -19 20 23 24 25 0
-13 14 15 18 -19 20 -23 -24 -25 0
-13 14 15 18 -19 -20 23 -24 -25 0
-13 14 15 18 -19 -20 -23 24 -25 0
-13 14 15 18 -19 -20 -23 -24 25 0
-13 14 15 18 -19 -20 -23 -24 -25 0
-13 14 15 -18 19 20 23 24 -25 0
-13 14 15 -18 19 20 23 -24 25 0
-13 14 15 -18 19 20 -23 24 25 0
-13 14 15 -18 19 -20 23 24 25 0
-13 14 15 -18 -19 20 23 -24 -25 0
-13 14 15 -18 -19 20 -23 24 -25 0
-13 14 15 -18 -19 20 -23 -24 25 0
-13 14 15 -18 -19 20 -23 -24 -25 0
-13 14 15 -18 -19 -20 23 24 -25 0
-13 14 15 -18 -19 -20 23 -24 25 0
-13 14 15 -18 -19 -20 23 -24 -25 0
-13 14 15 -18 -19 -20 -23 24 25 0
-13 14 15 -18 -19 -20 -23 24 -25 0
-13 14 15 -18 -19 -20 -23 -24 25 0
-13 14 15 -18 -19 -20 -23 -24 -25 0
-13 14 -15 18 19 20 23 24 -25 0
-13 14 -15 18 19 20 23 -24 25 0
-13 14 -15 18 19 20 -23 24 25 0
-13 14 -15 18 19 -20 23 24 25 0
-13 14 -15 18 -19 20 23 -24 -25 0
-13 14 -15 18 -19 20 -23 24 -25 0
-13 14 -15 18 -19 20 -23 -24 25 0
-13 14 -15 18 -19 20 -23 -24 -25 0
-13 14 -15 18 -19 -20 23 24 -25 0
-13 14 -15 18 -19 -20 23 -24 25 0
-13 14 -15 18 -19 -20 23 -24 -25 0
-13 14 -15 18 -19 -20 -23 24 25 0
-13 14 -15 18 -19 -20 -23 24 -25 0
-13 14 -15 18 -19 -20 -23 -24 25 0
-13 14 -15 18 -19 -20 -23 -24 -25 0
-13 14 -15 -18 19 20 23 24 25 0
-13 14 -15 -18 -19 20 23 24 -25 0
-13 14 -15 -18 -19 20 23 -24 25 0
-13 14 -15 -18 -19 20 23 -24 -25 0
-13 14 -15 -18 -19 20 -23 24 25 0
-13 14 -15 -18 -19 20 -23 24 -25 0
-13 14 -15 -18 -19 20 -23 -24 25 0
-13 14 -15 -18 -19 20 -23 -24 -25 0
-13 14 -15 -18 -19 -20 23 24 25 0
-13 14 -15 -18 -19 -20 23 24 -25 0
-13 14 -15 -18 -19 -20 23 -24 25 0
-13 14 -15 -18 -19 -20 23 -24 -25 0
-13 14 -15 -18 -19 -20 -23 24 25 0
-13 14 -15 -18 -19 -20 -23 24 -25 0
-13 14 -15 -18 -19 -20 -23 -24 25 0
-13 14 -15 -18 -19 -20 -23 -24 -25 0
-13 -14 15 18 19 20 23 24 -25 0
-13 -14 15 18 19 20 23 -24 25 0
-13 -14 15 18 19 20 -23 24 25 0
-13 -14 15 18 19 -20 23 24 25 0
-13 -14 15 18 -19 20 23 -24 -25 0
-13 -14 15 18 -19 20 -23 24 -25 0
-13 -14 15 18 -19 20 -23 -24 25 0
-13 -14 15 18 -19 20 -23 -24 -25 0
-13 -14 15 18 -19 -20 23 24 -25 0
-13 -14 15 18 -19 -20 23 -24 25 0
-13 -14 15 18 -19 -20 23 -24 -25 0
-13 -14 15 18 -19 -20 -23 24 25 0
-13 -14 15 18 -19 -20 -23 24 -25 0
-13 -14 15 18 -19 -20 -23 -24 25 0
-13 -14 15 18 -19 -20 -23 -24 -25 0
-13 -14 15 -18 19 20 23 24 25 0
-13 -14 15 -18 -19 20 23 24 -25 0
-13 -14 15 -18 -19 20 23 -24 25 0
-13 -14 15 -18 -19 20 23 -24 -25 0
-13 -14 15 -18 -19 20 -23 24 25 0
-13 -14 15 -18 -19 20 -23 24 -25 0
-13 -14 15 -18 -19 20 -23 -24 25 0
-13 -14 15 -18 -19 20 -23 -24 -25 0
-13 -14 15 -18 -19 -20 23 24 25 0
-13 -14 15 -18 -19 -20 23 24 -25 0
-13 -14 15 -18 -19 -20 23 -24 25 0
-13 -14 15 -18 -19 -20 23 -24 -25 0
-13 -14 15 -18 -19 -20 -23 24 25 0
-13 -14 15 -18 -19 -20 -23 24 -25 0
-13 -14 15 -18 -19 -20 -23 -24 25 0
-13 -14 15 -18 -19 -20 -23 -24 -25 0
-13 -14 -15 18 19 20 23 24 25 0
-13 -14 -15 18 -19 20 23 24 -25 0
-13 -14 -15 18 -19 20 23 -24 25 0
-13 -14 -15 18 -19 20 23 -24 -25 0
-13 -14 -15 18 -19 20 -23 24 25 0
-13 -14 -15 18 -19 20 -23 24 -25 0
-13 -14 -15 18 -19 20 -23 -24 25 0
-13 -14 -15 18 -19 20 -23 -24 -25 0
-13 -14 -15 18 -19 -20 23 24 25 0
-13 -14 -15 18 -19 -20 23 24 -25 0
-13 -14 -15 18 -19 -20 23 -24 25 0
-13 -14 -15 18 -19 -20 23 -24 -25 0
-13 -14 -15 18 -19 -20 -23 24 25 0
-13 -14 -15 18 -19 -20 -23 24 -25 0
-13 -14 -15 18 -19 -20 -23 -24 25 0
-13 -14 -15 18 -19 -20 -23 -24 -25 0
-13 -14 -15 -18 -19 20 23 24 25 0
-13 -14 -15 -18 -19 20 23 24 -25 0
-13 -14 -15 -18 -19 20 23 -24 25 0
-13 -14 -15 -18 -19 20 23 -24 -25 0
-13 -14 -15 -18 -19 20 -23 24 25 0
-13 -14 -15 -18 -19 20 -23 24 -25 0
-13 -14 -15 -18 -19 20 -23 -24 25 0
-13 -14 -15 -18 -19 20 -23 -24 -25 0
-13 -14 -15 -18 -19 -20 23 24 25 0
-13 -14 -15 -18 -19 -20 23 24 -25 0
-13 -14 -15 -18 -19 -20 23 -24 25 0
-13 -14 -15 -18 -19 -20 23 -24 -25 0
-13 -14 -15 -18 -19 -20 -23 24 25 0
-13 -14 -15 -18 -19 -20 -23 24 -25 0
-13 -14 -15 -18 -19 -20 -23 -24 25 0
-13 -14 -15 -18 -19 -20 -23 -24 -25 0
14 15 19 -20 24 25 0
14 15 19 -20 24 -25 0
14 15 19 -20 -24 25 0
14 15 -19 20 -24 -25 0
14 15 -19 -20 24 25 0
14 -15 19 20 -24 -25 0
14 -15 19 -20 24 25 0
14 -15 -19 20 24 -25 0
14 -15 -19 20 -24 25 0
14 -15 -19 -20 -24 -25 0
-14 15 19 20 -24 -25 0
-14 15 19 -20 24 25 0
-14 15 -19 20 24 -25 0
-14 15 -19 20 -24 25 0
-14 15 -19 -20 -24 -25 0
-14 -15 19 20 24 -25 0
-14 -15 19 20 -24 25 0
-14 -15 19 -20 -24 -25 0
-14 -15 -19 20 24 25 0
-14 -15 -19 -20 24 -25 0
-14 -15 -19 -20 -24 25 0
-14 -15 -19 -20 -24 -25 0
-15 -20 -25 0
-16 -21 -26 0
16 17 21 -22 -26 -27 0
16 17 -21 22 26 27 0
16 17 -21 22 26 -27 0
16 17 -21 22 -26 27 0
16 17 -21 -22 26 27 0
16 -17 21 22 -26 -27 0
16 -17 21 -22 26 -27 0
16 -17 21 -22 -26 27 0
16 -17 -21 22 26 27 0
16 -17 -21 -22 -26 -27 0
-16 17 21 22 -26 -27 0
-16 17 21 -22 26 -27 0
-16 17 21 -22 -26 27 0
-16 17 -21 22 26 27 0
-16 17 -21 -22 -26 -27 0
-16 -17 21 22 26 -27 0
-16 -17 21 22 -26 27 0
-16 -17 21 -22 26 27 0
-16 -17 -21 22 -26 -27 0
-16 -17 -21 -22 26 -27 0
-16 -17 -21 -22 -26 27 0
-16 -17 -21 -22 -26 -27 0
16 17 18 21 22 23 -26 -27 -28 0
16 17 18 21 22 -23 26 -27 -28 0
16 17 18 21 22 -23 -26 27 -28 0
16 17 18 21 22 -23 -26 -27 28 0
16 17 18 21 -22 23 26 27 28 0
16 17 18 21 -22 23 26 27 -28 0
16 17 18 21 -22 23 26 -27 28 0
16 17 18 21 -22 23 -26 27 28 0
16 17 18 21 -22 -23 26 27 28 0
16 17 18 21 -22 -23 -26 -27 -28 0
16 17 18 -21 22 23 26 -27 -28 0
16 17 18 -21 22 23 -26 27 -28 0
16 17 18 -21 22 23 -26 -27 28 0
16 17 18 -21 22 -23 26 27 -28 0
16 17 18 -21 22 -23 26 -27 28 0
16 17 18 -21 22 -23 -26 27 28 0
16 17 18 -21 -22 23 26 27 28 0
16 17 18 -21 -22 23 -26 -27 -28 0
16 17 18 -21 -22 -23 26 -27 -28 0
16 17 18 -21 -22 -23 -26 27 -28 0
16 17 18 -21 -22 -23 -26 -27 28 0
16 17 18 -21 -22 -23 -26 -27 -28 0
16 17 -18 21 22 23 26 -27 -28 0
16 17 -18 21 22 23 -26 27 -28 0
16 17 -18 21 22 23 -26 -27 28 0
16 17 -18 21 22 -23 26 27 -28 0
16 17 -18 21 22 -23 26 -27 28 0
16 17 -18 21 22 -23 -26 27 28 0
16 17 -18 21 -22 23 26 27 28 0
16 17 -18 21 -22 23 -26 -27 -28 0
16 17 -18 21 -22 -23 26 -27 -28 0
16 17 -18 21 -22 -23 -26 27 -28 0
16 17 -18 21 -22 -23 -26 -27 28 0
16 17 -18 21 -22 -23 -26 -27 -28 0
16 17 -18 -21 22 23 26 27 -28 0
16 17 -18 -21 22 23 26 -27 28 0
16 17 -18 -21 22 23 -26 27 28 0
16 17 -18 -21 22 -23 26 27 28 0
16 17 -18 -21 -22 23 26 -27 -28 0
16 17 -18 -21 -22 23 -26 27 -28 0
16 17 -18 -21 -22 23 -26 -27 28 0
16 17 -18 -21 -22 23 -26 -27 -28 0
16 17 -18 -21 -22 -23 26 27 -28 0
16 17 -18 -21 -22 -23 26 -27 28 0
16 17 -18 -21 -22 -23 26 -27 -28 0
16 17 -18 -21 -22 -23 -26 27 28 0
16 17 -18 -21 -22 -23 -26 27 -28 0
16 17 -18 -21 -22 -23 -26 -27 28 0
16 17 -18 -21 -22 -23 -26 -27 -28 0
16 -17 18 21 22 23 26 -27 -28 0
16 -17 18 21 22 23 -26 27 -28 0
16 -17 18 21 22 23 -26 -27 28 0
16 -17 18 21 22 -23 26 27 -28 0
16 -17 18 21 22 -23 26 -27 28 0
16 -17 18 21 22 -23 -26 27 28 0
16 -17 18 21 -22 23 26 27 28 0
16 -17 18 21 -22 23 -26 -27 -28 0
16 -17 18 21 -22 -23 26 -27 -28 0
16 -17 18 21 -22 -23 -26 27 -28 0
16 -17 18 21 -22 -23 -26 -27 28 0
16 -17 18 21 -22 -23 -26 -27 -28 0
16 -17 18 -21 22 23 26 27 -28 0
16 -17 18 -21 22 23 26 -27 28 0
16 -17 18 -21 22 23 -26 27 28 0
16 -17 18 -21 22 -23 26 27 28 0
16 -17 18 -21 -22 23 26 -27 -28 0
16 -17 18 -21 -22 23 -26 27 -28 0
16 -17 18 -21 -22 23 -26 -27 28 0
16 -17 18 -21 -22 23 -26 -27 -28 0
16 -17 18 -21 -22 -23 26 27 -28 0
16 -17 18 -21 -22 -23 26 -27 28 0
16 -17 18 -21 -22 -23 26 -27 -28 0
16 -17 18 -21 -22 -23 -26 27 28 0
16 -17 18 -21 -22 -23 -26 27 -28 0
16 -17 18 -21 -22 -23 -26 -27 28 0
16 -17 18 -21 -22 -23 -26 -27 -28 0
16 -17 -18 21 22 23 26 27 -28 0
16 -17 -18 21 22 23 26 -27 28 0
16 -17 -18 21 22 23 -26 27 28 0
16 -17 -18 21 22 -23 26 27 28 0
16 -17 -18 21 -22 23 26 -27 -28 0
16 -17 -18 21 -22 23 -26 27 -28 0
16 -17 -18 21 -22 23 -26 -27 28 0
16 -17 -18 21 -22 23 -26 -27 -28 0
16 -17 -18 21 -22 -23 26 27 -28 0
16 -17 -18 21 -22 -23 26 -27 28 0
16 -17 -18 21 -22 -23 26 -27 -28 0
16 -17 -18 21 -22 -23 -26 27 28 0
16 -17 -18 21 -22 -23 -26 27 -28 0
16 -17 -18 21 -22 -23 -26 -27 28 0
16 -17 -18 21 -22 -23 -26 -27 -28 0
16 -17 -18 -21 22 23 26 27 28 0
16 -17 -18 -21 -22 23 26 27 -28 0
16 -17 -18 -21 -22 23 26 -27 28 0
16 -17 -18 -21 -22 23 26 -27 -28 0
16 -17 -18 -21 -22 23 -26 27 28 0
16 -17 -18 -21 -22 23 -26 27 -28 0
16 -17 -18 -21 -22 23 -26 -27 28 0
16 -17 -18 -21 -22 23 -26 -27 -28 0
16 -17 -18 -21 -22 -23 26 27 28 0
16 -17 -18 -21 -22 -23 26 27 -28 0
16 -17 -18 -21 -22 -23 26 -27 28 0
16 -17 -18 -21 -22 -23 26 -27 -28 0
16 -17 -18 -21 -22 -23 -26 27 28 0
16 -17 -18 -21 -22 -23 -26 27 -28 0
16 -17 -18 -21 -22 -23 -26 -27 28 0
16 -17 -18 -21 -22 -23 -26 -27 -28 0
-16 17 18 21 22 23 26 -27 -28 0
-16 17 18 21 22 23 -26 27 -28 0
-16 17 18 21 22 23 -26 -27 28 0
-16 17 18 21 22 -23 26 27 -28 0
-16 17 18 21 22 -23 26 -27 28 0
-16 17 18 21 22 -23 -26 27 28 0
-16 17 18 21 -22 23 26 27 28 0
-16 17 18 21 -22 23 -26 -27 -28 0
-16 17 18 21 -22 -23 26 -27 -28 0
-16 17 18 21 -22 -23 -26 27 -28 0
-16 17 18 21 -22 -23 -26 -27 28 0
-16 17 18 21 -22 -23 -26 -27 -28 0
-16 17 18 -21 22 23 26 27 -28 0
-16 17 18 -21 22 23 26 -27 28 0
-16 17 18 -21 22 23 -26 27 28 0
-16 17 18 -21 22 -23 26 27 28 0
-16 17 18 -21 -22 23 26 -27 -28 0
-16 17 18 -21 -22 23 -26 27 -28 0
-16 17 18 -21 -22 23 -26 -27 28 0
-16 17 18 -21 -22 23 -26 -27 -28 0
-16 17 18 -21 -22 -23 26 27 -28 0
-16 17 18 -21 -22 -23 26 -27 28 0
-16 17 18 -21 -22 -23 26 -27 -28 0
-16 17 18 -21 -22 -23 -26 27 28 0
-16 17 18 -21 -22 -23 -26 27 -28 0
-16 17 18 -21 -22 -23 -26 -27 28 0
-16 17 18 -21 -22 -23 -26 -27 -28 0
-16 17 -18 21 22 23 26 27 -28 0
-16 17 -18 21 22 23 26 -27 28 0
-16 17 -18 21 22 23 -26 27 28 0
-16 17 -18 21 22 -23 26 27 28 0
-16 17 -18 21 -22 23 26 -27 -28 0
-16 17 -18 21 -22 23 -26 27 -28 0
-16 17 -18 21 -22 23 -26 -27 28 0
-16 17 -18 21 -22 23 -26 -27 -28 0
-16 17 -18 21 -22 -23 26 27 -28 0
-16 17 -18 21 -22 -23 26 -27 28 0
-16 17 -18 21 -22 -23 26 -27 -28 0
-16 17 -18 21 -22 -23 -26 27 28 0
-16 17 -18 21 -22 -23 -26 27 -28 0
-16 17 -18 21 -22 -23 -26 -27 28 0
-16 17 -18 21 -22 -23 -26 -27 -28 0
-16 17 -18 -21 22 23 26 27 28 0
-16 17 -18 -21 -22 23 26 27 -28 0
-16 17 -18 -21 -22 23 26 -27 28 0
-16 17 -18 -21 -22 23 26 -27 -28 0
-16 17 -18 -21 -22 23 -26 27 28 0
-16 17 -18 -21 -22 23 -26 27 -28 0
-16 17 -18 -21 -22 23 -26 -27 28 0
-16 17 -18 -21 -22 23 -26 -27 -28 0
-16 17 -18 -21 -22 -23 26 27 28 0
-16 17 -18 -21 -22 -23 26 27 -28 0
-16 17 -18 -21 -22 -23 26 -27 28 0
-16 17 -18 -21 -22 -23 26 -27 -28 0
-16 17 -18 -21 -22 -23 -26 27 28 0
-16 17 -18 -21 -22 -23 -26 27 -28 0
-16 17 -18 -21 -22 -23 -26 -27 28 0
-16 17 -18 -21 -22 -23 -26 -27 -28 0
-16 -17 18 21 22 23 26 27 -28 0
-16 -17 18 21 22 23 26 -27 28 0
-16 -17 18 21 22 23 -26 27 28 0
-16 -17 18 21 22 -23 26 27 28 0
-16 -17 18 21 -22 23 26 -27 -28 0
-16 -17 18 21 -22 23 -26 27 -28 0
-16 -17 18 21 -22 23 -26 -27 28 0
-16 -17 18 21 -22 23 -26 -27 -28 0
-16 -17 18 21 -22 -23 26 27 -28 0
-16 -17 18 21 -22 -23 26 -27 28 0
-16 -17 18 21 -22 -23 26 -27 -28 0
-16 -17 18 21 -22 -23 -26 27 28 0
-16 -17 18 21 -22 -23 -26 27 -28 0
-16 -17 18 21 -22 -23 -26 -27 28 0
-16 -17 18 21 -22 -23 -26 -27 -28 0
-16 -17 18 -21 22 23 26 27 28 0
-16 -17 18 -21 -22 23 26 27 -28 0
-16 -17 18 -21 -22 23 26 -27 28 0
-16 -17 18 -21 -22 23 26 -27 -28 0
-16 -17 18 -21 -22 23 -26 27 28 0
-16 -17 18 -21 -22 23 -26 27 -28 0
-16 -17 18 -21 -22 23 -26 -27 28 0
-16 -17 18 -21 -22 23 -26 -27 -28 0
-16 -17 18 -21 -22 -23 26 27 28 0
-16 -17 18 -21 -22 -23 26 27 -28 0
-16 -17 18 -21 -22 -23 26 -27 28 0
-16 -17 18 -21 -22 -23 26 -27 -28 0
-16 -17 18 -21 -22 -23 -26 27 28 0
-16 -17 18 -21 -22 -23 -26 27 -28 0
-16 -17 18 -21 -22 -23 -26 -27 28 0
-16 -17 18 -21 -22 -23 -26 -27 -28 0
-16 -17 -18 21 22 23 26 27 28 0
-16 -17 -18 21 -22 23 26 27 -28 0
-16 -17 -18 21 -22 23 26 -27 28 0
-16 -17 -18 21 -22 23 26 -27 -28 0
-16 -17 -18 21 -22 23 -26 27 28 0
-16 -17 -18 21 -22 23 -26 27 -28 0
-16 -17 -18 21 -22 23 -26 -27 28 0
-16 -17 -18 21 -22 23 -26 -27 -28 0
-16 -17 -18 21 -22 -23 26 27 28 0
-16 -17 -18 21 -22 -23 26 27 -28 0
-16 -17 -18 21 -22 -23 26 -27 28 0
-16 -17 -18 21 -22 -23 26 -27 -28 0
-16 -17 -18 21 -22 -23 -26 27 28 0
-16 -17 -18 21 -22 -23 -26 27 -28 0
-16 -17 -18 21 -22 -23 -26 -27 28 0
-16 -17 -18 21 -22 -23 -26 -27 -28 0
-16 -17 -18 -21 -22 23 26 27 28 0
-16 -17 -18 -21 -22 23 26 27 -28 0
-16 -17 -18 -21 -22 23 26 -27 28 0
-16 -17 -18 -21 -22 23 26 -27 -28 0
-16 -17 -18 -21 -22 23 -26 27 28 0
-16 -17 -18 -21 -22 23 -26 27 -28 0
-16 -17 -18 -21 -22 23 -26 -27 28 0
-16 -17 -18 -21 -22 23 -26 -27 -28 0
-16 -17 -18 -21 -22 -23 26 27 28 0
-16 -17 -18 -21 -22 -23 26 27 -28 0
-16 -17 -18 -21 -22 -23 26 -27 28 0
-16 -17 -18 -21 -22 -23 26 -27 -28 0
-16 -17 -18 -21 -22 -23 -26 27 28 0
-16 -17 -18 -21 -22 -23 -26 27 -28 0
-16 -17 -18 -21 -22 -23 -26 -27 28 0
-16 -17 -18 -21 -22 -23 -26 -27 -28 0
17 18 19 22 23 24 -27 -28 -29 0
17 18 19 22 23 -24 27 -28 -29 0
17 18 19 22 23 -24 -27 28 -29 0
17 18 19 22 23 -24 -27 -28 29 0
17 18 19 22 -23 24 27 28 29 0
17 18 19 22 -23 24 27 28 -29 0
17 18 19 22 -23 24 27 -28 29 0
17 18 19 22 -23 24 -27 28 29 0
17 18 19 22 -23 -24 27 28 29 0
17 18 19 22 -23 -24 -27 -28 -29 0
17 18 19 -22 23 24 27 -28 -29 0
17 18 19 -22 23 24 -27 28 -29 0
17 18 19 -22 23 24 -27 -28 29 0
17 18 19 -22 23 -24 27 28 -29 0
17 18 19 -22 23 -24 27 -28 29 0
17 18 19 -22 23 -24 -27 28 29 0
17 18 19 -22 -23 24 27 28 29 0
17 18 19 -22 -23 24 -27 -28 -29 0
17 18 19 -22 -23 -24 27 -28 -29 0
17 18 19 -22 -23 -24 -27 28 -29 0
17 18 19 -22 -23 -24 -27 -28 29 0
17 18 19 -22 -23 -24 -27 -28 -29 0
17 18 -19 22 23 24 27 -28 -29 0
17 18 -19 22 23 24 -27 28 -29 0
17 18 -19 22 23 24 -27 -28 29 0
17 18 -19 22 23 -24 27 28 -29 0
17 18 -19 22 23 -24 27 -28 29 0
17 18 -19 22 23 -24 -27 28 29 0
17 18 -19 22 -23 24 27 28 29 0
17 18 -19 22 -23 24 -27 -28 -29 0
17 18 -19 22 -23 -24 27 -28 -29 0
17 18 -19 22 -23 -24 -27 28 -29 0
17 18 -19 22 -23 -24 -27 -28 29 0
17 18 -19 22 -23 -24 -27 -28 -29 0
17 18 -19 -22 23 24 27 28 -29 0
17 18 -19 -22 23 24 27 -28 29 0
17 18 -19 -22 23 24 -27 28 29 0
17 18 -19 -22 23 -24 27 28 29 0
17 18 -19 -22 -23 24 27 -28 -29 0
17 18 -19 -22 -23 24 -27 28 -29 0
17 18 -19 -22 -23 24 -27 -28 29 0
17 18 -19 -22 -23 24 -27 -28 -29 0
17 18 -19 -22 -23 -24 27 28 -29 0
17 18 -19 -22 -23 -24 27 -28 29 0
17 18 -19 -22 -23 -24 27 -28 -29 0
17 18 -19 -22 -23 -24 -27 28 29 0
17 18 -19 -22 -23 -24 -27 28 -29 0
17 18 -19 -22 -23 -24 -27 -28 29 0
17 18 -19 -22 -23 -24 -27 -28 -29 0
17 -18 19 22 23 24 27 -28 -29 0
17 -18 19 22 23 24 -27 28 -29 0
17 -18 19 22 23 24 -27 -28 29 0
17 -18 19 22 23 -24 27 28 -29 0
17 -18 19 22 23 -24 27 -28 29 0
17 -18 19 22 23 -24 -27 28 29 0
17 -18 19 22 -23 24 27 28 29 0
17 -18 19 22 -23 24 -27 -28 -29 0
17 -18 19 22 -23 -24 27 -28 -29 0
17 -18 19 22 -23 -24 -27 28 -29 0
17 -18 19 22 -23 -24 -27 -28 29 0
17 -18 19 22 -23 -24 -27 -28 -29 0
17 -18 19 -22 23 24 27 28 -29 0
17 -18 19 -22 23 24 27 -28 29 0
17 -18 19 -22 23 24 -27 28 29 0
17 -18 19 -22 23 -24 27 28 29 0
17 -18 19 -22 -23 24 27 -28 -29 0
17 -18 19 -22 -23 24 -27 28 -29 0
17 -18 19 -22 -23 24 -27 -28 29 0
17 -18 19 -22 -23 24 -27 -28 -29 0
17 -18 19 -22 -23 -24 27 28 -29 0
17 -18 19 -22 -23 -24 27 -28 29 0
17 -18 19 -22 -23 -24 27 -28 -29 0
17 -18 19 -22 -23 -24 -27 28 29 0
17 -18 19 -22 -23 -24 -27 28 -29 0
17 -18 19 -22 -23 -24 -27 -28 29 0
17 -18 19 -22 -23 -24 -27 -28 -29 0
17 -18 -19 22 23 24 27 28 -29 0
17 -18 -19 22 23 24 27 -28 29 0
17 -18 -19 22 23 24 -27 28 29 0
17 -18 -19 22 23 -24 27 28 29 0
17 -18 -19 22 -23 24 27 -28 -29 0
17 -18 -19 22 -23 24 -27 28 -29 0
17 -18 -19 22 -23 24 -27 -28 29 0
17 -18 -19 22 -23 24 -27 -28 -29 0
17 -18 -19 22 -23 -24 27 28 -29 0
17 -18 -19 22 -23 -24 27 -28 29 0
17 -18 -19 22 -23 -24 27 -28 -29 0
17 -18 -19 22 -23 -24 -27 28 29 0
17 -18 -19 22 -23 -24 -27 28 -29 0
17 -18 -19 22 -23 -24 -27 -28 29 0
17 -18 -19 22 -23 -24 -27 -28 -29 0
17 -18 -19 -22 23 24 27 28 29 0
17 -18 -19 -22 -23 24 27 28 -29 0
17 -18 -19 -22 -23 24 27 -28 29 0
17 -18 -19 -22 -23 24 27 -28 -29 0
17 -18 -19 -22 -23 24 -27 28 29 0
17 -18 -19 -22 -23 24 -27 28 -29 0
17 -18 -19 -22 -23 24 -27 -28 29 0
17 -18 -19 -22 -23 24 -27 -28 -29 0
17 -18 -19 -22 -23 -24 27 28 29 0
17 -18 -19 -22 -23 -24 27 28 -29 0
17 -18 -19 -22 -23 -24 27 -28 29 0
17 -18 -19 -22 -23 -24 27 -28 -29 0
17 -18 -19 -22 -23 -24 -27 28 29 0
17 -18 -19 -22 -23 -24 -27 28 -29 0
17 -18 -19 -22 -23 -24 -27 -28 29 0
17 -18 -19 -22 -23 -24 -27 -28 -29 0
-17 18 19 22 23 24 27 -28 -29 0
-17 18 19 22 23 24 -27 28 -29 0
-17 18 19 22 23 24 -27 -28 29 0
-17 18 19 22 23 -24 27 28 -29 0
-17 18 19 22 23 -24 27 -28 29 0
-17 18 19 22 23 -24 -27 28 29 0
-17 18 19 22 -23 24 27 28 29 0
-17 18 19 22 -23 24 -27 -28 -29 0
-17 18 19 22 -23 -24 27 -28 -29 0
-17 18 19 22 -23 -24 -27 28 -29 0
-17 18 19 22 -23 -24 -27 -28 29 0
-17 18 19 22 -23 -24 -27 -28 -29 0
-17 18 19 -22 23 24 27 28 -29 0
-17 18 19 -22 23 24 27 -28 29 0
-17 18 19 -22 23 24 -27 28 29 0
-17 18 19 -22 23 -24 27 28 29 0
-17 18 19 -22 -23 24 27 -28 -29 0
-17 18 19 -22 -23 24 -27 28 -29 0
-17 18 19 -22 -23 24 -27 -28 29 0
-17 18 19 -22 -23 24 -27 -28 -29 0
-17 18 19 -22 -23 -24 27 28 -29 0
-17 18 19 -22 -23 -24 27 -28 29 0
-17 18 19 -22 -23 -24 27 -28 -29 0
-17 18 19 -22 -23 -24 -27 28 29 0
-17 18 19 -22 -23 -24 -27 28 -29 0
-17 18 19 -22 -23 -24 -27 -28 29 0
-17 18 19 -22 -23 -24 -27 -28 -29 0
-17 18 -19 22 23 24 27 28 -29 0
-17 18 -19 22 23 24 27 -28 29 0
-17 18 -19 22 23 24 -27 28 29 0
-17 18 -19 22 23 -24 27 28 29 0
-17 18 -19 22 -23 24 27 -28 -29 0
-17 18 -19 22 -23 24 -27 28 -29 0
-17 18 -19 22 -23 24 -27 -28 29 0
-17 18 -19 22 -23 24 -27 -28 -29 0
-17 18 -19 22 -23 -24 27 28 -29 0
-17 18 -19 22 -23 -24 27 -28 29 0
-17 18 -19 22 -23 -24 27 -28 -29 0
-17 18 -19 22 -23 -24 -27 28 29 0
-17 18 -19 22 -23 -24 -27 28 -29 0
-17 18 -19 22 -23 -24 -27 -28 29 0
-17 18 -19 22 -23 -24 -27 -28 -29 0
-17 18 -19 -22 23 24 27 28 29 0
-17 18 -19 -22 -23 24 27 28 -29 0
-17 18 -19 -22 -23 24 27 -28 29 0
-17 18 -19 -22 -23 24 27 -28 -29 0
-17 18 -19 -22 -23 24 -27 28 29 0
-17 18 -19 -22 -23 24 -27 28 -29 0
-17 18 -19 -22 -23 24 -27 -28 29 0
-17 18 -19 -22 -23 24 -27 -28 -29 0
-17 18 -19 -22 -23 -24 27 28 29 0
-17 18 -19 -22 -23 -24 27 28 -29 0
-17 18 -19 -22 -23 -24 27 -28 29 0
-17 18 -19 -22 -23 -24 27 -28 -29 0
-17 18 -19 -22 -23 -24 -27 28 29 0
-17 18 -19 -22 -23 -24 -27 28 -29 0
-17 18 -19 -22 -23 -24 -27 -28 29 0
-17 18 -19 -22 -23 -24 -27 -28 -29 0
-17 -18 19 22 23 24 27 28 -29 0
-17 -18 19 22 23 24 27 -28 29 0
-17 -18 19 22 23 24 -27 28 29 0
-17 -18 19 22 23 -24 27 28 29 0
-17 -18 19 22 -23 24 27 -28 -29 0
-17 -18 19 22 -23 24 -27 28 -29 0
-17 -18 19 22 -23 24 -27 -28 29 0
-17 -18 19 22 -23 24 -27 -28 -29 0
-17 -18 19 22 -23 -24 27 28 -29 0
-17 -18 19 22 -23 -24 27 -28 29 0
-17 -18 19 22 -23 -24 27 -28 -29 0
-17 -18 19 22 -23 -24 -27 28 29 0
-17 -18 19 22 -23 -24 -27 28 -29 0
-17 -18 19 22 -23 -24 -27 -28 29 0
-17 -18 19 22 -23 -24 -27 -28 -29 0
-17 -18 19 -22 23 24 27 28 29 0
-17 -18 19 -22 -23 24 27 28 -29 0
-17 -18 19 -22 -23 24 27 -28 29 0
-17 -18 19 -22 -23 24 27 -28 -29 0
-17 -18 19 -22 -23 24 -27 28 29 0
-17 -18 19 -22 -23 24 -27 28 -29 0
-17 -18 19 -22 -23 24 -27 -28 29 0
-17 -18 19 -22 -23 24 -27 -28 -29 0
-17 -18 19 -22 -23 -24 27 28 29 0
-17 -18 19 -22 -23 -24 27 28 -29 0
-17 -18 19 -22 -23 -24 27 -28 29 0
-17 -18 19 -22 -23 -24 27 -28 -29 0
-17 -18 19 -22 -23 -24 -27 28 29 0
-17 -18 19 -22 -23 -24 -27 28 -29 0
-17 -18 19 -22 -23 -24 -27 -28 29 0
-17 -18 19 -22 -23 -24 -27 -28 -29 0
-17 -18 -19 22 23 24 27 28 29 0
-17 -18 -19 22 -23 24 27 28 -29 0
-17 -18 -19 22 -23 24 27 -28 29 0
-17 -18 -19 22 -23 24 27 -28 -29 0
-17 -18 -19 22 -23 24 -27 28 29 0
-17 -18 -19 22 -23 24 -27 28 -29 0
-17 -18 -19 22 -23 24 -27 -28 29 0
-17 -18 -19 22 -23 24 -27 -28 -29 0
-17 -18 -19 22 -23 -24 27 28 29 0
-17 -18 -19 22 -23 -24 27 28 -29 0
-17 -18 -19 22 -23 -24 27 -28 29 0
-17 -18 -19 22 -23 -24 27 -28 -29 0
-17 -18 -19 22 -23 -24 -27 28 29 0
-17 -18 -19 22 -23 -24 -27 28 -29 0
-17 -18 -19 22 -23 -24 -27 -28 29 0
-17 -18 -19 22 -23 -24 -27 -28 -29 0
-17 -18 -19 -22 -23 24 27 28 29 0
-17 -18 -19 -22 -23 24 27 28 -29 0
-17 -18 -19 -22 -23 24 27 -28 29 0
-17 -18 -19 -22 -23 24 27 -28 -29 0
-17 -18 -19 -22 -23 24 -27 28 29 0
-17 -18 -19 -22 -23 24 -27 28 -29 0
-17 -18 -19 -22 -23 24 -27 -28 29 0
-17 -18 -19 -22 -23 24 -27 -28 -29 0
-17 -18 -19 -22 -23 -24 27 28 29 0
-17 -18 -19 -22 -23 -24 27 28 -29 0
-17 -18 -19 -22 -23 -24 27 -28 29 0
-17 -18 -19 -22 -23 -24 27 -28 -29 0
-17 -18 -19 -22 -23 -24 -27 28 29 0
-17 -18 -19 -22 -23 -24 -27 28 -29 0
-17 -18 -19 -22 -23 -24 -27 -28 29 0
-17 -18 -19 -22 -23 -24 -27 -28 -29 0
18 19 20 23 24 25 -28 -29 -30 0
18 19 20 23 24 -25 28 -29 -30 0
18 19 20 23 24 -25 -28 29 -30 0
18 19 20 23 24 -25 -28 -29 30 0
18 19 20 23 -24 25 28 29 30 0
18 19 20 23 -24 25 28 29 -30 0
18 19 20 23 -24 25 28 -29 30 0
18 19 20 23 -24 25 -28 29 30 0
18 19 20 23 -24 -25 28 29 30 0
18 19 20 23 -24 -25 -28 -29 -30 0
18 19 20 -23 24 25 28 -29 -30 0
18 19 20 -23 24 25 -28 29 -30 0
18 19 20 -23 24 25 -28 -29 30 0
18 19 20 -23 24 -25 28 29 -30 0
18 19 20 -23 24 -25 28 -29 30 0
18 19 20 -23 24 -25 -28 29 30 0
18 19 20 -23 -24 25 28 29 30 0
18 19 20 -23 -24 25 -28 -29 -30 0
18 19 20 -23 -24 -25 28 -29 -30 0
18 19 20 -23 -24 -25 -28 29 -30 0
18 19 20 -23 -24 -25 -28 -29 30 0
18 19 20 -23 -24 -25 -28 -29 -30 0
18 19 -20 23 24 25 28 -29 -30 0
18 19 -20 23 24 25 -28 29 -30 0
18 19 -20 23 24 25 -28 -29 30 0
18 19 -20 23 24 -25 28 29 -30 0
18 19 -20 23 24 -25 28 -29 30 0
18 19 -20 23 24 -25 -28 29 30 0
18 19 -20 23 -24 25 28 29 30 0
18 19 -20 23 -24 25 -28 -29 -30 0
18 19 -20 23 -24 -25 28 -29 -30 0
18 19 -20 23 -24 -25 -28 29 -30 0
18 19 -20 23 -24 -25 -28 -29 30 0
18 19 -20 23 -24 -25 -28 -29 -30 0
18 19 -20 -23 24 25 28 29 -30 0
18 19 -20 -23 24 25 28 -29 30 0
18 19 -20 -23 24 25 -28 29 30 0
18 19 -20 -23 24 -25 28 29 30 0
18 19 -20 -23 -24 25 28 -29 -30 0
18 19 -20 -23 -24 25 -28 29 -30 0
18 19 -20 -23 -24 25 -28 -29 30 0
18 19 -20 -23 -24 25 -28 -29 -30 0
18 19 -20 -23 -24 -25 28 29 -30 0
18 19 -20 -23 -24 -25 28 -29 30 0
18 19 -20 -23 -24 -25 28 -29 -30 0
18 19 -20 -23 -24 -25 -28 29 30 0
18 19 -20 -23 -24 -25 -28 29 -30 0
18 19 -20 -23 -24 -25 -28 -29 30 0
18 19 -20 -23 -24 -25 -28 -29 -30 0
18 -19 20 23 24 25 28 -29 -30 0
18 -19 20 23 24 25 -28 29 -30 0
18 -19 20 23 24 25 -28 -29 30 0
18 -19 20 23 24 -25 28 29 -30 0
18 -19 20 23 24 -25 28 -29 30 0
18 -19 20 23 24 -25 -28 29 30 0
18 -19 20 23 -24 25 28 29 30 0
18 -19 20 23 -24 25 -28 -29 -30 0
18 -19 20 23 -24 -25 28 -29 -30 0
18 -19 20 23 -24 -25 -28 29 -30 0
18 -19 20 23 -24 -25 -28 -29 30 0
18 -19 20 23 -24 -25 -28 -29 -30 0
18 -19 20 -23 24 25 28 29 -30 0
18 -19 20 -23 24 25 28 -29 30 0
18 -19 20 -23 24 25 -28 29 30 0
18 -19 20 -23 24 -25 28 29 30 0
18 -19 20 -23 -24 25 28 -29 -30 0
18 -19 20 -23 -24 25 -28 29 -30 0
18 -19 20 -23 -24 25 -28 -29 30 0
18 -19 20 -23 -24 25 -28 -29 -30 0
18 -19 20 -23 -24 -25 28 29 -30 0
18 -19 20 -23 -24 -25 28 -29 30 0
18 -19 20 -23 -24 -25 28 -29 -30 0
18 -19 20 -23 -24 -25 -28 29 30 0
18 -19 20 -23 -24 -25 -28 29 -30 0
18 -19 20 -23 -24 -25 -28 -29 30 0
18 -19 20 -23 -24 -25 -28 -29 -30 0
18 -19 -20 23 24 25 28 29 -30 0
18 -19 -20 23 24 25 28 -29 30 0
18 -19 -20 23 24 25 -28 29 30 0
18 -19 -20 23 24 -25 28 29 30 0
18 -19 -20 23 -24 25 28 -29 -30 0
18 -19 -20 23 -24 25 -28 29 -30 0
18 -19 -20 23 -24 25 -28 -29 30 0
18 -19 -20 23 -24 25 -28 -29 -30 0
18 -19 -20 23 -24 -25 28 29 -30 0
18 -19 -20 23 -24 -25 28 -29 30 0
18 -19 -20 23 -24 -25 28 -29 -30 0
18 -19 -20 23 -24 -25 -28 29 30 0
18 -19 -20 23 -24 -25 -28 29 -30 0
18 -19 -20 23 -24 -25 -28 -29 30 0
18 -19 -20 23 -24 -25 -28 -29 -30 0
18 -19 -20 -23 24 25 28 29 30 0
18 -19 -20 -23 -24 25 28 29 -30 0
18 -19 -20 -23 -24 25 28 -29 30 0
18 -19 -20 -23 -24 25 28 -29 -30 0
18 -19 -20 -23 -24 25 -28 29 30 0
18 -19 -20 -23 -24 25 -28 29 -30 0
18 -19 -20 -23 -24 25 -28 -29 30 0
18 -19 -20 -23 -24 25 -28 -29 -30 0
18 -19 -20 -23 -24 -25 28 29 30 0
18 -19 -20 -23 -24 -25 28 29 -30 0
18 -19 -20 -23 -24 -25 28 -29 30 0
18 -19 -20 -23 -24 -25 28 -29 -30 0
18 -19 -20 -23 -24 -25 -28 29 30 0
18 -19 -20 -23 -24 -25 -28 29 -30 0
18 -19 -20 -23 -24 -25 -28 -29 30 0
18 -19 -20 -23 -24 -25 -28 -29 -30 0
-18 19 20 23 24 25 28 -29 -30 0
-18 19 20 23 24 25 -28 29 -30 0
-18 19 20 23 24 25 -28 -29 30 0
-18 19 20 23 24 -25 28 29 -30 0
-18 19 20 23 24 -25 28 -29 30 0
-18 19 20 23 24 -25 -28 29 30 0
-18 19 20 23 -24 25 28 29 30 0
-18 19 20 23 -24 25 -28 -29 -30 0
-18 19 20 23 -24 -25 28 -29 -30 0
-18 19 20 23 -24 -25 -28 29 -30 0
-18 19 20 23 -24 -25 -28 -29 30 0
-18 19 20 23 -24 -25 -28 -29 -30 0
-18 19 20 -23 24 25 28 29 -30 0
-18 19 20 -23 24 25 28 -29 30 0
-18 19 20 -23 24 25 -28 29 30 0
-18 19 20 -23 24 -25 28 29 30 0
-18 19 20 -23 -24 25 28 -29 -30 0
-18 19 20 -23 -24 25 -28 29 -30 0
-18 19 20 -23 -24 25 -28 -29 30 0
-18 19 20 -23 -24 25 -28 -29 -30 0
-18 19 20 -23 -24 -25 28 29 -30 0
-18 19 20 -23 -24 -25 28 -29 30 0
-18 19 20 -23 -24 -25 28 -29 -30 0
-18 19 20 -23 -24 -25 -28 29 30 0
-18 19 20 -23 -24 -25 -28 29 -30 0
-18 19 20 -23 -24 -25 -28 -29 30 0
-18 19 20 -23 -24 -25 -28 -29 -30 0
-18 19 -20 23 24 25 28 29 -30 0
-18 19 -20 23 24 25 28 -29 30 0
-18 19 -20 23 24 25 -28 29 30 0
-18 19 -20 23 24 -25 28 29 30 0
-18 19 -20 23 -24 25 28 -29 -30 0
-18 19 -20 23 -24 25 -28 29 -30 0
-18 19 -20 23 -24 25 -28 -29 30 0
-18 19 -20 23 -24 25 -28 -29 -30 0
-18 19 -20 23 -24 -25 28 29 -30 0
-18 19 -20 23 -24 -25 28 -29 30 0
-18 19 -20 23 -24 -25 28 -29 -30 0
-18 19 -20 23 -24 -25 -28 29 30 0
-18 19 -20 23 -24 -25 -28 29 -30 0
-18 19 -20 23 -24 -25 -28 -29 30 0
-18 19 -20 23 -24 -25 -28 -29 -30 0
-18 19 -20 -23 24 25 28 29 30 0
-18 19 -20 -23 -24 25 28 29 -30 0
-18 19 -20 -23 -24 25 28 -29 30 0
-18 19 -20 -23 -24 25 28 -29 -30 0
-18 19 -20 -23 -24 25 -28 29 30 0
-18 19 -20 -23 -24 25 -28 29 -30 0
-18 19 -20 -23 -24 25 -28 -29 30 0
-18 19 -20 -23 -24 25 -28 -29 -30 0
-18 19 -20 -23 -24 -25 28 29 30 0
-18 19 -20 -23 -24 -25 28 29 -30 0
-18 19 -20 -23 -24 -25 28 -29 30 0
-18 19 -20 -23 -24 -25 28 -29 -30 0
-18 19 -20 -23 -24 -25 -28 29 30 0
-18 19 -20 -23 -24 -25 -28 29 -30 0
-18 19 -20 -23 -24 -25 -28 -29 30 0
-18 19 -20 -23 -24 -25 -28 -29 -30 0
-18 -19 20 23 24 25 28 29 -30 0
-18 -19 20 23 24 25 28 -29 30 0
-18 -19 20 23 24 25 -28 29 30 0
-18 -19 20 23 24 -25 28 29 30 0
-18 -19 20 23 -24 25 28 -29 -30 0
-18 -19 20 23 -24 25 -28 29 -30 0
-18 -19 20 23 -24 25 -28 -29 30 0
-18 -19 20 23 -24 25 -28 -29 -30 0
-18 -19 20 23 -24 -25 28 29 -30 0
-18 -19 20 23 -24 -25 28 -29 30 0
-18 -19 20 23 -24 -25 28 -29 -30 0
-18 -19 20 23 -24 -25 -28 29 30 0
-18 -19 20 23 -24 -25 -28 29 -30 0
-18 -19 20 23 -24 -25 -28 -29 30 0
-18 -19 20 23 -24 -25 -28 -29 -30 0
-18 -19 20 -23 24 25 28 29 30 0
-18 -19 20 -23 -24 25 28 29 -30 0
-18 -19 20 -23 -24 25 28 -29 30 0
-18 -19 20 -23 -24 25 28 -29 -30 0
-18 -19 20 -23 -24 25 -28 29 30 0
-18 -19 20 -23 -24 25 -28 29 -30 0
-18 -19 20 -23 -24 25 -28 -29 30 0
-18 -19 20 -23 -24 25 -28 -29 -30 0
-18 -19 20 -23 -24 -25 28 29 30 0
-18 -19 20 -23 -24 -25 28 29 -30 0
-18 -19 20 -23 -24 -25 28 -29 30 0
-18 -19 20 -23 -24 -25 28 -29 -30 0
-18 -19 20 -23 -24 -25 -28 29 30 0
-18 -19 20 -23 -24 -25 -28 29 -30 0
-18 -19 20 -23 -24 -25 -28 -29 30 0
-18 -19 20 -23 -24 -25 -28 -29 -30 0
-18 -19 -20 23 24 25 28 29 30 0
-18 -19 -20 23 -24 25 28 29 -30 0
-18 -19 -20 23 -24 25 28 -29 30 0
-18 -19 -20 23 -24 25 28 -29 -30 0
-18 -19 -20 23 -24 25 -28 29 30 0
-18 -19 -20 23 -24 25 -28 29 -30 0
-18 -19 -20 23 -24 25 -28 -29 30 0
-18 -19 -20 23 -24 25 -28 -29 -30 0
-18 -19 -20 23 -24 -25 28 29 30 0
-18 -19 -20 23 -24 -25 28 29 -30 0
-18 -19 -20 23 -24 -25 28 -29 30 0
-18 -19 -20 23 -24 -25 28 -29 -30 0
-18 -19 -20 23 -24 -25 -28 29 30 0
-18 -19 -20 23 -24 -25 -28 29 -30 0
-18 -19 -20 23 -24 -25 -28 -29 30 0
-18 -19 -20 23 -24 -25 -28 -29 -30 0
-18 -19 -20 -23 -24 25 28 29 30 0
-18 -19 -20 -23 -24 25 28 29 -30 0
-18 -19 -20 -23 -24 25 28 -29 30 0
-18 -19 -20 -23 -24 25 28 -29 -30 0
-18 -19 -20 -23 -24 25 -28 29 30 0
-18 -19 -20 -23 -24 25 -28 29 -30 0
-18 -19 -20 -23 -24 25 -28 -29 30 0
-18 -19 -20 -23 -24 25 -28 -29 -30 0
-18 -19 -20 -23 -24 -25 28 29 30 0
-18 -19 -20 -23 -24 -25 28 29 -30 0
-18 -19 -20 -23 -24 -25 28 -29 30 0
-18 -19 -20 -23 -24 -25 28 -29 -30 0
-18 -19 -20 -23 -24 -25 -28 29 30 0
-18 -19 -20 -23 -24 -25 -28 29 -30 0
-18 -19 -20 -23 -24 -25 -28 -29 30 0
-18 -19 -20 -23 -24 -25 -28 -29 -30 0
19 20 24 -25 29 30 0
19 20 24 -25 29 -30 0
19 20 24 -25 -29 30 0
19 20 -24 25 -29 -30 0
19 20 -24 -25 29 30 0
19 -20 24 25 -29 -30 0
19 -20 24 -25 29 30 0
19 -20 -24 25 29 -30 0
19 -20 -24 25 -29 30 0
19 -20 -24 -25 -29 -30 0
-19 20 24 25 -29 -30 0
-19 20 24 -25 29 30 0
-19 20 -24 25 29 -30 0
-19 20 -24 25 -29 30 0
-19 20 -24 -25 -29 -30 0
-19 -20 24 25 29 -30 0
-19 -20 24 25 -29 30 0
-19 -20 24 -25 -29 -30 0
-19 -20 -24 25 29 30 0
-19 -20 -24 -25 29 -30 0
-19 -20 -24 -25 -29 30 0
-19 -20 -24 -25 -29 -30 0
-20 -25 -30 0
21 22 -26 27 0
21 22 -26 -27 0
21 -22 -26 27 0
-21 22 -26 27 0
-21 -22 26 -27 0
21 22 23 26 -27 28 0
21 22 23 26 -27 -28 0
21 22 23 -26 -27 28 0
21 22 -23 26 -27 28 0
21 22 -23 -26 27 -28 0
21 -22 23 26 -27 28 0
21 -22 23 -26 27 -28 0
21 -22 -23 26 27 -28 0
21 -22 -23 -26 27 28 0
21 -22 -23 -26 -27 -28 0
-21 22 23 26 -27 28 0
-21 22 23 -26 27 -28 0
-21 22 -23 26 27 -28 0
-21 22 -23 -26 27 28 0
-21 22 -23 -26 -27 -28 0
-21 -22 23 26 27 -28 0
-21 -22 23 -26 27 28 0
-21 -22 23 -26 -27 -28 0
-21 -22 -23 26 27 28 0
-21 -22 -23 26 -27 -28 0
-21 -22 -23 -26 -27 28 0
-21 -22 -23 -26 -27 -28 0
22 23 24 27 -28 29 0
22 23 24 27 -28 -29 0
22 23 24 -27 -28 29 0
22 23 -24 27 -28 29 0
22 23 -24 -27 28 -29 0
22 -23 24 27 -28 29 0
22 -23 24 -27 28 -29 0
22 -23 -24 27 28 -29 0
22 -23 -24 -27 28 29 0
22 -23 -24 -27 -28 -29 0
-22 23 24 27 -28 29 0
-22 23 24 -27 28 -29 0
-22 23 -24 27 28 -29 0
-22 23 -24 -27 28 29 0
-22 23 -24 -27 -28 -29 0
-22 -23 24 27 28 -29 0
-22 -23 24 -27 28 29 0
-22 -23 24 -27 -28 -29 0
-22 -23 -24 27 28 29 0
-22 -23 -24 27 -28 -29 0
-22 -23 -24 -27 -28 29 0
-22 -23 -24 -27 -28 -29 0
23 24 25 28 -29 30 0
23 24 25 28 -29 -30 0
23 24 25 -28 -29 30 0
23 24 -25 28 -29 30 0
23 24 -25 -28 29 -30 0
23 -24 25 28 -29 30 0
23 -24 25 -28 29 -30 0
23 -24 -25 28 29 -30 0
23 -24 -25 -28 29 30 0
23 -24 -25 -28 -29 -30 0
-23 24 25 28 -29 30 0
-23 24 25 -28 29 -30 0
-23 24 -25 28 29 -30 0
-23 24 -25 -28 29 30 0
-23 24 -25 -28 -29 -30 0
-23 -24 25 28 29 -30 0
-23 -24 25 -28 29 30 0
-23 -24 25 -28 -29 -30 0
-23 -24 -25 28 29 30 0
-23 -24 -25 28 -29 -30 0
-23 -24 -25 -28 -29 30 0
-23 -24 -25 -28 -29 -30 0
24 25 29 -30 0
24 25 -29 -30 0
24 -25 29 -30 0
-24 25 29 -30 0
-24 -25 -29 30 0
-26 -27 -28 0
-27 -28 -29 0
-28 -29 -30 0
1 2 3 4 5 0
26 27 28 29 30 0
1 6 11 16 21 26 0
5 10 15 20 25 30 0
1 2 3 4 5 6 7 8 9 10 11 12 13 14 15 16 17 18 19 20 21 22 23 24 25 26 27 28 29 30 0
1 -2 -3 4 5 -6 7 8 -9 10 -11 -12 -13 14 -15 16 17 18 -19 20 -21 -22 -23 24 25 -26 27 28 29 30 0
1 -2 -3 4 5 -6 7 8 -9 10 -11 -12 -13 14 -15 16 17 18 19 -20 -21 -22 23 -24 25 -26 -27 28 -29 -30 0
1 2 -3 -4 5 6 7 -8 -9 10 11 12 13 14 15 16 17 18 19 20 -21 -22 23 -24 -25 -26 -27 28 -29 -30 0
1 2 -3 -4 5 6 7 -8 -9 10 11 12 13 14 15 -16 -17 -18 -19 20 -21 22 23 24 -25 26 27 28 -29 -30 0
1 2 3 -4 5 6 -7 -8 -9 10 -11 12 13 14 15 16 -17 -18 -19 20 21 22 23 24 -25 26 27 28 -29 -30 0
-1 2 3 -4 5 -6 -7 -8 -9 10 11 12 13 14 15 -16 -17 -18 -19 20 -21 22 23 24 -25 26 27 28 -29 -30 0
-1 -2 3 -4 5 -6 7 -8 -9 10 11 12 13 14 15 16 -17 -18 -19 20 -21 22 23 24 -25 -26 -27 28 -29 -30 0
1 -2 3 -4 5 -6 7 -8 -9 10 -11 12 13 14 15 16 -17 -18 -19 20 21 22 23 24 -25 26 27 28 -29 -30 0
-1 -2 3 -4 5 -6 7 -8 -9 10 11 12 13 14 15 16 -17 -18 19 -20 -21 22 23 -24 -25 -26 -27 28 29 30 0
1 -2 3 4 5 6 -7 -8 -9 10 11 12 13 14 -15 16 -17 -18 19 -20 -21 22 23 -24 25 -26 -27 28 29 30 0
1 -2 3 4 5 6 -7 -8 -9 10 11 12 13 14 -15 16 -17 -18 19 -20 -21 22 23 -24 25 26 -27 -28 29 30 0
1 -2 3 4 -5 6 -7 -8 -9 -10 11 12 13 14 15 16 -17 -18 19 20 -21 22 23 -24 25 26 -27 -28 29 30 0
1 -2 3 4 -5 6 -7 -8 -9 -10 11 12 13 14 15 16 -17 -18 -19 -20 -21 22 23 24 -25 -26 -27 28 29 30 0
1 2 3 4 -5 6 7 -8 -9 -10 11 -12 13 14 15 -16 17 -18 -19 -20 21 -22 23 24 -25 26 27 -28 -29 30 0
1 2 3 -4 -5 6 7 -8 9 -10 11 -12 13 14 15 -16 17 -18 -19 20 21 -22 23 24 -25 26 27 -28 -29 30 0
1 -2 -3 4 5 6 7 -8 9 10 11 -12 13 14 15 -16 17 -18 -19 -20 21 -22 23 24 -25 26 27 -28 -29 30 0
1 2 3 -4 -5 6 7 -8 9 -10 11 -12 13 14 15 -16 17 -18 -19 20 21 -22 23 24 -25 26 27 28 -29 -30 0
1 2 3 -4 -5 6 7 -8 9 -10 11 -12 13 14 15 -16 17 -18 -19 20 -21 -22 23 24 -25 26 27 28 -29 -30 0
1 2 3 -4 -5 6 7 -8 9 -10 11 -12 13 14 15 -16 17 -18 -19 20 -21 22 23 -24 25 26 -27 -28 29 30 0
1 2 3 4 -5 6 7 -8 -9 -10 11 -12 13 14 15 -16 17 -18 19 20 -21 22 23 -24 25 26 -27 -28 29 30 0
1 2 3 4 -5 6 7 -8 -9 -10 11 -12 13 14 15 -16 17 -18 19 20 21 -22 23 -24 25 26 27 -28 29 30 0
1 2 3 4 -5 6 7 -8 -9 -10 11 -12 13 14 15 -16 17 -18 19 20 21 -22 23 -24 25 26 27 -28 -29 30 0
-1 -2 3 -4 -5 -6 -7 8 -9 10 11 12 13 14 -15 -16 -17 -18 19 -20 -21 22 23 -24 25 26 -27 -28 29 30 0
-1 -2 3 4 5 -6 -7 8 9 10 11 12 13 14 15 -16 -17 -18 -19 20 -21 22 23 24 -25 26 27 28 -29 -30 0
-1 -2 3 4 5 6 -7 8 9 10 -11 12 13 14 15 16 -17 -18 -19 20 21 22 23 24 -25 26 27 28 -29 -30 0
1 2 3 4 -5 6 7 -8 -9 -10 11 -12 13 14 15 16 17 -18 19 20 -21 22 -23 24 25 -26 -27 28 29 30 0
1 2 3 4 -5 6 7 -8 -9 -10 11 -12 13 14 15 -16 17 -18 19 20 -21 22 -23 24 25 26 -27 28 29 30 0
1 2 -3 -4 5 6 7 -8 9 -10 -11 -12 13 14 -15 16 -17 18 -19 20 -21 22 23 -24 -25 -26 -27 28 29 30 0
1 -2 -3 4 -5 -6 7 8 -9 -10 -11 -12 13 14 15 16 -17 18 -19 -20 -21 22 23 -24 -25 -26 -27 28 29 30 0
1 -2 -3 4 5 -6 7 8 -9 10 -11 -12 13 14 -15 16 -17 18 -19 -20 21 -22 23 24 25 -26 -27 28 29 30 0
1 2 -3 -4 5 6 7 -8 9 10 -11 -12 13 14 -15 16 -17 18 -19 -20 21 -22 23 24 25 -26 -27 28 29 30 0
1 -2 -3 4 -5 -6 7 8 -9 -10 -11 -12 13 14 15 16 -17 18 -19 -20 21 -22 23 24 -25 26 27 -28 -29 30 0
-1 -2 3 4 5 -6 -7 8 9 10 11 12 13 14 15 16 17 18 -19 -20 21 -22 23 24 -25 26 -27 -28 29 30 0
-1 -2 3 4 5 -6 -7 8 9 10 11 12 13 14 15 16 17 18 -19 -20 -21 -22 23 24 -25 -26 27 -28 -29 30 0
1 -2 3 4 -5 6 -7 -8 -9 -10 11 12 13 14 15 16 17 18 -19 -20 -21 -22 23 24 -25 -26 27 -28 -29 30 0
1 2 3 -4 -5 6 7 8 -9 -10 11 12 13 14 15 16 17 18 -19 -20 -21 -22 23 24 -25 -26 27 -28 -29 30 0
1 2 3 -4 -5 6 7 8 -9 -10 11 12 13 14 15 16 17 18 19 20 -21 -22 23 24 25 -26 -27 28 29 30 0
1 2 3 -4 -5 6 7 8 -9 -10 11 12 13 14 15 16 17 18 19 20 -21 -22 23 -24 -25 -26 -27 28 -29 -30 0
1 -2 -3 4 -5 6 -7 8 -9 -10 11 12 13 14 15 16 17 18 19 20 -21 -22 23 -24 -25 -26 -27 28 -29 -30 0
1 -2 -3 4 -5 6 -7 8 -9 -10 11 12 13 14 15 16 17 18 19 20 -21 -22 23 24 25 -26 -27 28 29 30 0
-1 2 -3 -4 5 -6 -7 8 -9 10 11 12 13 14 15 16 17 18 19 20 -21 -22 23 -24 -25 -26 -27 28 -29 -30 0
-1 -2 3 -4 -5 -6 -7 8 -9 -10 11 12 13 14 15 16 17 18 19 20 -21 -22 23 24 25 -26 -27 28 29 30 0
-1 -2 3 -4 -5 -6 -7 8 -9 -10 11 12 13 14 15 16 17 18 19 20 -21 -22 23 -24 -25 -26 -27 28 -29 -30 0
-1 -2 3 4 5 -6 -7 8 9 10 11 12 13 14 15 16 17 18 19 20 -21 -22 23 -24 -25 -26 -27 28 -29 -30 0
1 2 3 -4 -5 6 7 8 -9 -10 11 12 13 14 15 16 17 18 19 20 -21 -22 23 -24 25 -26 27 -28 -29 30 0
1 -2 -3 4 -5 6 -7 8 -9 -10 11 12 13 14 15 16 17 18 19 20 -21 -22 23 -24 25 -26 27 -28 -29 30 0
-1 -2 3 4 5 -6 -7 8 9 10 11 12 13 14 15 16 17 18 19 20 21 -22 23 -24 -25 26 -27 -28 29 -30 0
-1 -2 3 -4 -5 -6 -7 8 -9 -10 11 12 13 14 15 16 17 18 19 20 -21 -22 23 -24 25 -26 27 -28 -29 30 0
-1 -2 3 -4 -5 -6 -7 8 -9 -10 11 12 13 14 15 16 17 18 19 20 21 -22 23 -24 -25 26 -27 -28 29 -30 0
-1 2 -3 -4 5 -6 -7 8 -9 10 11 12 13 14 15 16 17 18 19 20 21 -22 23 -24 -25 26 -27 -28 29 -30 0
1 -2 3 -4 -5 6 -7 -8 9 -10 11 12 13 14 15 16 17 18 19 20 -21 -22 23 -24 25 -26 27 -28 -29 30 0
1 -2 3 -4 -5 6 -7 -8 9 -10 11 12 13 14 15 16 17 18 19 20 -21 -22 23 -24 -25 -26 -27 28 -29 -30 0
1 -2 -3 4 5 6 -7 -8 9 10 11 12 13 14 15 16 17 18 19 20 -21 -22 23 -24 -25 -26 -27 28 -29 -30 0
1 -2 3 -4 -5 6 -7 -8 9 -10 11 12 13 14 15 16 17 18 19 20 -21 -22 23 24 25 -26 -27 28 29 30 0
1 -2 3 -4 -5 6 -7 -8 9 -10 11 12 13 14 15 16 17 18 19 20 -21 22 -23 -24 25 -26 -27 28 -29 30 0
1 2 3 -4 -5 6 7 8 -9 -10 11 12 13 14 15 16 17 18 19 20 -21 22 -23 -24 25 -26 -27 28 -29 30 0
-1 -2 3 -4 -5 -6 -7 8 -9 -10 11 12 13 14 15 16 17 18 19 20 -21 22 -23 -24 25 -26 -27 28 -29 30 0
1 -2 -3 4 -5 6 -7 8 -9 -10 11 12 13 14 15 16 17 18 19 20 -21 22 -23 -24 25 -26 -27 28 -29 30 0
1 -2 -3 4 -5 -6 7 8 -9 -10 -11 -12 13 14 15 16 17 18 19 20 -21 -22 -23 -24 25 -26 27 28 -29 30 0
1 2 3 -4 -5 -6 7 -8 9 -10 -11 -12 13 14 15 16 17 18 19 20 -21 -22 -23 -24 25 -26 27 28 -29 30 0
1 2 3 -4 -5 6 7 -8 9 -10 11 -12 13 14 15 -16 17 18 19 20 21 -22 -23 -24 25 26 27 28 -29 30 0
1 2 3 -4 -5 6 7 -8 9 -10 11 -12 13 14 15 -16 17 18 19 20 -21 22 -23 24 25 26 -27 -28 29 30 0
1 2 3 -4 -5 -6 -7 8 9 -10 11 -12 13 -14 15 -16 17 18 -19 -20 -21 22 -23 24 25 26 -27 -28 29 30 0
1 -2 3 4 -5 6 -7 -8 -9 -10 11 12 13 14 15 16 17 18 -19 -20 -21 22 -23 24 -25 -26 -27 28 29 30 0
1 -2 3 4 5 6 -7 -8 -9 10 11 12 13 14 -15 16 17 18 -19 20 -21 22 -23 24 25 -26 -27 28 29 30 0
1 2 3 -4 5 6 -7 -8 -9 10 -11 12 13 14 15 16 -17 18 19 20 21 22 -23 24 -25 26 27 28 -29 -30 0
1 -2 3 4 -5 6 -7 -8 -9 -10 11 12 13 14 15 16 -17 -18 19 20 -21 22 -23 24 25 -26 -27 28 29 30 0
1 -2 3 4 -5 6 -7 -8 -9 -10 11 12 13 14 15 16 -17 -18 19 20 -21 22 -23 24 25 26 -27 28 29 30 0
-1 -2 3 -4 -5 -6 7 8 9 -10 11 12 -13 -14 15 16 -17 -18 19 20 -21 22 23 24 -25 -26 -27 28 -29 -30 0
1 2 3 -4 -5 6 7 -8 9 -10 11 12 -13 14 15 16 -17 -18 19 -20 -21 22 23 -24 -25 -26 -27 28 29 30 0
-1 -2 3 4 5 -6 7 -8 9 10 11 12 -13 14 15 16 -17 -18 19 -20 -21 22 23 -24 -25 -26 -27 28 29 30 0
-1 -2 3 4 5 -6 7 8 -9 -10 11 -12 -13 14 -15 16 17 -18 19 20 21 22 -23 24 -25 26 27 28 -29 -30 0
-1 -2 3 4 5 -6 7 8 -9 -10 11 -12 -13 14 -15 16 17 -18 19 20 -21 22 -23 24 25 -26 -27 28 29 30 0
1 2 -3 4 5 6 -7 8 -9 10 -11 12 -13 14 -15 -16 17 -18 19 -20 21 -22 23 -24 25 26 27 -28 29 30 0
1 2 3 -4 -5 -6 -7 8 9 -10 -11 12 -13 -14 15 16 17 -18 19 20 -21 22 -23 24 25 -26 -27 28 29 30 0
1 2 3 -4 -5 -6 -7 8 9 -10 -11 12 -13 -14 15 16 17 -18 19 20 21 22 -23 24 -25 26 27 28 -29 -30 0
-1 -2 3 -4 -5 -6 7 8 9 -10 11 -12 -13 14 15 16 17 -18 -19 20 -21 22 23 24 -25 -26 -27 28 -29 -30 0
-1 -2 3 4 5 -6 7 -8 9 10 11 12 -13 14 15 -16 17 -18 -19 20 -21 -22 23 24 -25 26 27 28 -29 -30 0
1 2 3 -4 -5 6 7 -8 9 -10 11 12 -13 14 15 -16 17 -18 -19 20 -21 -22 23 24 -25 26 27 28 -29 -30 0
-1 2 3 -4 5 -6 -7 -8 -9 10 11 12 13 14 15 16 17 -18 -19 20 21 22 -23 24 -25 26 27 28 -29 30 0
-1 2 3 -4 5 -6 -7 -8 -9 10 11 12 13 14 15 16 17 -18 -19 20 21 22 -23 24 -25 26 27 28 -29 -30 0
1 -2 3 -4 -5 6 -7 -8 9 -10 11 12 13 14 15 16 -17 -18 -19 20 -21 22 23 -24 25 26 -27 -28 29 30 0
1 -2 3 -4 -5 6 -7 -8 9 -10 11 12 13 14 15 16 -17 -18 -19 20 -21 22 23 -24 25 -26 -27 28 29 30 0
1 -2 3 -4 5 6 -7 -8 9 -10 11 12 13 14 -15 16 -17 -18 -19 20 -21 22 23 24 25 -26 -27 28 29 30 0
1 2 3 -4 -5 6 7 8 -9 10 11 12 13 14 -15 16 -17 -18 -19 20 -21 22 23 24 25 -26 -27 28 29 30 0
1 -2 3 4 5 6 -7 -8 -9 10 11 12 13 14 -15 16 -17 -18 -19 20 -21 22 23 24 25 -26 -27 28 29 30 0
1 -2 3 -4 -5 6 -7 -8 9 -10 11 12 13 14 15 16 -17 -18 -19 20 -21 22 23 24 -25 -26 -27 28 -29 -30 0
1 -2 -3 4 5 6 -7 -8 9 10 11 12 13 14 15 16 -17 -18 -19 -20 -21 22 23 24 -25 -26 -27 28 29 30 0
-1 -2 3 -4 -5 6 -7 8 -9 -10 -11 12 13 14 15 -16 17 -18 -19 -20 21 -22 23 24 -25 26 27 -28 -29 30 0
1 2 -3 -4 5 6 -7 8 9 -10 11 -12 13 -14 -15 16 17 -18 19 20 -21 22 -23 24 25 -26 -27 28 29 30 0
1 -2 -3 4 5 -6 7 8 -9 10 -11 -12 13 -14 15 16 17 -18 19 20 21 22 -23 24 -25 26 27 28 -29 -30 0
-1 2 3 4 5 -6 -7 -8 9 10 11 12 13 -14 15 16 17 -18 19 20 21 22 -23 24 -25 26 27 28 -29 -30 0
-1 2 3 4 5 -6 -7 -8 9 10 11 12 13 -14 15 16 17 -18 19 -20 21 -22 23 24 -25 26 27 -28 -29 30 0
-1 2 3 4 5 -6 -7 -8 9 10 11 12 13 -14 15 16 17 -18 19 -20 21 -22 23 -24 25 26 27 -28 29 30 0
-1 2 3 4 5 -6 -7 -8 9 10 11 12 13 -14 15 16 17 -18 19 -20 21 -22 23 -24 25 26 -27 -28 29 30 0
-1 2 3 4 5 -6 -7 -8 9 10 11 12 13 -14 15 16 17 -18 19 -20 21 22 -23 24 -25 26 27 28 -29 30 0
1 -2 3 -4 -5 6 -7 -8 9 -10 11 12 13 14 15 -16 17 -18 -19 20 -21 -22 23 24 -25 26 27 28 -29 -30 0
1 2 3 -4 5 6 -7 -8 -9 10 -11 12 13 14 15 -16 17 -18 -19 20 21 -22 23 24 -25 26 27 -28 -29 30 0
-1 2 3 -4 5 -6 -7 -8 -9 10 11 12 13 14 15 16 17 -18 -19 20 21 -22 23 24 -25 26 27 -28 -29 30 0
1 2 3 -4 5 6 -7 -8 -9 10 -11 12 13 14 15 -16 17 -18 -19 20 21 -22 23 24 -25 26 27 28 -29 -30 0
-1 -2 3 -4 5 -6 7 -8 -9 10 11 12 13 14 15 -16 17 -18 -19 20 -21 -22 23 24 -25 26 27 28 -29 -30 0
1 2 3 -4 -5 6 7 8 -9 -10 11 12 13 14 15 16 -17 -18 -19 -20 -21 22 23 24 -25 -26 -27 28 29 30 0
-1 -2 3 -4 5 -6 7 -8 -9 10 11 12 13 14 15 16 -17 -18 -19 20 21 -22 23 24 -25 26 27 28 -29 -30 0
-1 -2 3 -4 5 -6 7 -8 -9 10 11 12 13 14 15 16 -17 -18 -19 20 21 -22 23 24 -25 26 27 -28 -29 30 0
1 -2 3 -4 -5 6 -7 -8 9 -10 11 12 13 14 15 16 -17 -18 19 -20 -21 22 23 -24 -25 -26 -27 28 29 30 0
-1 -2 3 4 5 -6 7 -8 9 10 11 12 13 -14 15 16 -17 -18 19 -20 21 -22 23 24 -25 26 27 -28 -29 30 0
-1 -2 3 4 5 -6 7 -8 9 10 11 12 13 -14 15 16 -17 -18 19 -20 -21 22 23 -24 25 26 -27 -28 29 30 0
1 2 -3 -4 5 6 7 -8 9 10 11 12 13 -14 15 -16 -17 -18 19 -20 -21 22 23 -24 25 26 -27 -28 29 30 0
-1 -2 3 4 5 -6 7 -8 9 10 11 12 13 -14 15 16 -17 -18 19 -20 -21 22 23 -24 -25 -26 -27 28 29 30 0
-1 -2 3 4 5 -6 7 -8 9 10 11 12 13 -14 15 16 -17 -18 19 -20 -21 22 23 -24 25 -26 -27 28 29 30 0
-1 2 3 4 5 -6 -7 -8 9 10 11 12 13 -14 15 -16 -17 -18 19 -20 -21 22 23 -24 25 26 -27 -28 29 30 0
-1 -2 3 4 5 -6 7 8 -9 -10 11 -12 13 -14 -15 -16 -17 18 19 20 -21 22 23 -24 -25 26 -27 -28 29 -30 0
-1 -2 3 4 5 -6 7 8 -9 -10 11 -12 13 -14 15 -16 -17 18 19 -20 21 22 -23 24 -25 26 27 -28 -29 30 0
1 2 3 -4 -5 6 7 8 -9 10 -11 -12 13 -14 15 -16 17 18 -19 -20 21 22 -23 24 25 26 -27 -28 29 30 0
1 2 3 4 -5 -6 7 -8 -9 -10 -11 -12 13 14 15 16 17 18 -19 -20 -21 -22 -23 24 -25 -26 27 28 29 30 0
-1 -2 3 -4 5 -6 7 -8 -9 10 11 12 13 14 15 16 17 18 19 20 21 -22 -23 24 -25 26 -27 28 -29 -30 0
1 2 -3 -4 5 6 7 -8 9 -10 11 12 13 14 -15 16 17 18 -19 20 -21 22 -23 24 25 -26 -27 28 29 30 0
1 -2 -3 4 5 -6 7 -8 9 10 -11 12 13 14 15 16 -17 18 19 20 21 22 -23 24 -25 26 27 28 -29 -30 0
-1 2 3 -4 5 -6 -7 -8 -9 10 11 12 13 14 15 -16 -17 18 19 20 -21 22 23 -24 -25 26 -27 -28 29 -30 0
-1 2 3 -4 5 -6 -7 -8 -9 10 11 12 13 14 15 -16 -17 18 19 20 -21 22 -23 24 -25 26 27 28 -29 -30 0
-1 2 3 4 5 -6 -7 -8 9 -10 11 12 13 -14 -15 -16 -17 18 19 20 -21 22 -23 -24 -25 26 27 28 29 -30 0
1 2 3 -4 -5 6 7 8 -9 -10 11 12 13 14 15 -16 -17 18 19 20 -21 22 -23 24 -25 26 27 28 -29 -30 0
-1 -2 3 4 5 -6 -7 8 9 10 11 12 13 14 15 -16 -17 18 19 20 -21 22 -23 24 -25 26 27 28 -29 -30 0
1 2 3 -4 -5 6 7 8 -9 -10 11 12 13 14 15 -16 -17 18 19 20 -21 22 -23 24 25 26 -27 28 29 30 0
1 2 3 -4 -5 6 7 8 -9 -10 11 12 13 14 15 16 -17 18 19 20 -21 22 -23 24 25 26 -27 28 29 30 0
1 2 3 -4 -5 6 7 8 -9 -10 11 12 13 14 15 16 -17 18 19 20 -21 22 -23 24 25 -26 -27 28 29 30 0
1 2 3 -4 -5 6 7 8 -9 -10 11 12 13 14 15 16 -17 18 19 20 -21 22 -23 24 25 26 -27 -28 29 30 0
1 2 3 -4 -5 6 7 8 -9 -10 11 12 13 14 15 -16 -17 18 19 20 -21 22 -23 24 25 26 -27 -28 29 30 0
-1 -2 3 -4 -5 -6 -7 8 -9 -10 11 12 13 14 15 16 17 18 19 20 21 -22 -23 24 -25 26 -27 28 -29 -30 0
-1 2 -3 -4 5 -6 -7 8 -9 10 11 12 13 14 15 16 17 18 19 20 21 -22 -23 24 -25 26 -27 28 -29 -30 0
-1 -2 3 4 5 -6 -7 8 9 10 11 12 13 14 15 16 17 18 19 20 21 -22 -23 24 -25 26 -27 28 -29 -30 0
-1 -2 3 -4 -5 -6 -7 8 -9 -10 11 12 13 14 15 16 17 18 19 20 21 -22 -23 24 25 26 -27 -28 29 30 0
-1 -2 3 -4 -5 -6 -7 8 -9 -10 11 12 13 14 15 16 17 18 19 20 21 22 -23 -24 25 26 27 -28 -29 30 0
-1 -2 3 4 5 -6 7 -8 9 10 11 12 13 -14 15 16 17 18 19 -20 21 22 -23 24 -25 26 27 -28 -29 30 0
-1 -2 3 4 5 -6 7 -8 9 10 11 12 13 -14 15 16 17 18 19 -20 21 -22 -23 -24 25 26 -27 28 29 30 0
-1 -2 3 4 5 -6 7 -8 9 -10 11 12 13 -14 -15 16 17 18 19 20 21 -22 -23 -24 -25 26 -27 28 29 -30 0
-1 2 -3 -4 5 -6 -7 8 9 -10 11 12 13 -14 -15 16 17 18 19 20 21 -22 -23 -24 -25 26 -27 28 29 -30 0
1 -2 -3 4 5 -6 7 8 -9 10 -11 12 -13 14 15 16 -17 18 19 20 21 22 -23 -24 -25 26 27 28 29 -30 0
1 -2 -3 4 5 -6 7 8 -9 10 -11 12 -13 -14 15 16 -17 18 19 20 21 22 -23 24 -25 26 27 28 -29 -30 0
1 2 -3 -4 5 6 -7 8 9 -10 -11 12 -13 -14 -15 16 -17 18 19 20 21 22 -23 24 25 26 -27 -28 29 30 0
1 2 3 -4 -5 6 -7 8 9 -10 -11 12 -13 -14 15 16 -17 18 19 20 21 22 -23 24 -25 26 27 28 -29 -30 0
1 2 -3 -4 5 6 -7 8 9 -10 -11 12 -13 -14 15 16 -17 18 19 20 21 22 -23 24 -25 26 27 28 -29 -30 0
1 2 -3 -4 5 6 -7 8 9 -10 -11 12 -13 -14 -15 16 -17 18 19 20 21 22 -23 -24 -25 26 27 28 29 -30 0
1 2 -3 -4 5 6 -7 8 -9 10 -11 12 -13 14 15 16 -17 18 19 20 21 22 -23 -24 -25 26 27 28 29 -30 0
1 2 -3 4 5 6 -7 8 -9 10 -11 12 -13 14 15 16 -17 18 19 20 21 22 -23 -24 -25 26 27 28 29 -30 0
1 2 3 -4 -5 -6 -7 8 9 -10 -11 12 -13 -14 15 16 -17 18 19 20 21 22 -23 24 -25 26 27 28 -29 -30 0
-1 -2 3 4 5 -6 7 -8 9 10 11 12 -13 14 15 16 -17 18 19 20 21 22 -23 -24 -25 26 27 28 29 -30 0
1 -2 3 4 5 -6 7 -8 9 10 -11 12 -13 14 15 16 -17 18 19 20 21 22 -23 -24 -25 26 27 28 29 -30 0
-1 -2 3 4 5 -6 7 -8 9 10 11 12 -13 14 15 16 -17 18 -19 -20 21 -22 23 24 -25 26 27 -28 -29 30 0
1 2 3 -4 -5 6 7 -8 9 -10 11 12 -13 14 15 -16 -17 18 -19 20 -21 22 23 -24 25 26 -27 -28 29 30 0
1 2 3 -4 -5 -6 -7 8 9 -10 -11 12 -13 -14 15 16 17 18 19 20 -21 22 -23 -24 25 -26 -27 28 -29 30 0
1 2 3 -4 -5 6 -7 8 9 -10 -11 12 -13 -14 15 -16 17 18 19 20 21 -22 -23 -24 25 26 27 28 -29 30 0
1 2 -3 -4 5 6 -7 8 9 -10 -11 12 -13 -14 15 -16 17 18 19 20 21 -22 -23 -24 25 26 27 28 -29 30 0
1 2 -3 -4 5 6 -7 8 9 -10 11 12 -13 -14 15 16 17 18 19 20 -21 -22 -23 -24 25 -26 27 28 -29 30 0
1 2 3 -4 -5 -6 -7 8 9 -10 -11 12 -13 -14 15 16 17 18 19 20 21 -22 -23 24 -25 26 -27 28 -29 -30 0
1 2 -3 -4 5 6 -7 8 9 -10 -11 12 -13 -14 -15 -16 17 18 19 20 21 -22 23 -24 -25 -26 -27 28 -29 -30 0
1 2 -3 4 5 6 -7 8 -9 10 11 12 -13 14 -15 16 17 18 -19 20 -21 -22 -23 24 25 -26 27 28 29 30 0
1 -2 -3 4 5 6 -7 8 -9 10 11 12 -13 14 -15 16 17 18 -19 20 -21 -22 -23 24 25 -26 27 28 29 30 0
1 2 -3 -4 5 6 -7 8 9 -10 11 12 -13 14 -15 16 17 18 -19 20 -21 -22 -23 24 25 -26 27 28 29 30 0
-1 -2 3 -4 -5 -6 7 8 9 -10 11 -12 -13 -14 15 16 17 18 19 20 -21 22 -23 -24 25 -26 -27 28 -29 30 0
1 2 3 -4 -5 6 7 8 9 -10 11 -12 -13 -14 15 -16 17 18 19 20 -21 22 -23 -24 25 26 -27 28 -29 30 0
1 2 3 -4 -5 6 7 8 9 -10 11 -12 -13 -14 15 -16 17 18 19 20 21 -22 -23 -24 25 26 27 28 -29 30 0
1 2 3 -4 -5 -6 7 8 9 -10 -11 -12 -13 -14 15 16 17 18 19 20 -21 -22 -23 -24 25 -26 27 28 -29 30 0
1 2 3 -4 -5 -6 7 8 9 -10 -11 -12 -13 -14 15 16 17 18 19 20 21 22 -23 -24 25 26 27 -28 -29 30 0
1 2 -3 -4 5 6 -7 8 9 -10 11 -12 -13 -14 15 16 17 18 19 20 -21 22 -23 -24 25 -26 -27 28 -29 30 0
1 2 3 -4 -5 6 -7 8 9 -10 11 -12 -13 -14 15 16 17 18 19 20 -21 22 -23 -24 25 -26 -27 28 -29 30 0
1 2 -3 -4 5 6 -7 8 9 -10 11 -12 -13 14 -15 16 17 18 -19 20 -21 22 -23 24 25 -26 -27 28 29 30 0
-1 -2 3 4 5 -6 7 8 -9 -10 11 -12 -13 14 -15 16 17 18 -19 20 -21 22 -23 24 25 -26 -27 28 29 30 0
-1 -2 3 4 5 -6 7 8 -9 10 11 -12 -13 14 -15 16 17 18 -19 20 -21 22 -23 24 25 -26 -27 28 29 30 0
1 -2 -3 4 5 -6 7 8 -9 10 11 -12 -13 14 -15 16 17 18 -19 20 -21 22 -23 24 25 -26 -27 28 29 30 0
1 -2 -3 4 5 -6 7 8 -9 10 -11 -12 -13 14 -15 16 17 18 -19 20 21 22 -23 24 25 26 27 -28 -29 30 0
-1 -2 3 4 5 -6 7 8 9 -10 11 -12 -13 -14 -15 16 17 18 19 20 21 -22 -23 24 25 26 -27 -28 29 30 0
-1 -2 3 4 5 -6 7 8 -9 -10 11 -12 -13 14 -15 16 17 18 19 20 21 -22 -23 24 -25 26 -27 28 -29 -30 0
-1 -2 3 4 5 -6 7 8 -9 10 11 -12 -13 -14 15 16 17 18 19 20 21 -22 -23 24 -25 26 -27 28 -29 -30 0
1 -2 -3 4 5 -6 7 8 -9 10 11 -12 -13 -14 15 16 17 18 19 20 21 -22 -23 24 -25 26 -27 28 -29 -30 0
-1 -2 3 -4 -5 -6 7 8 9 -10 11 -12 -13 -14 15 16 17 18 19 20 21 -22 -23 24 -25 26 -27 28 -29 -30 0
-1 -2 3 4 5 -6 7 8 9 10 11 -12 -13 -14 15 16 17 18 19 -20 21 -22 -23 24 -25 26 -27 28 -29 30 0
-1 -2 3 4 5 6 -7 8 9 10 11 -12 13 -14 -15 -16 -17 18 19 -20 21 22 -23 24 25 26 27 -28 -29 30 0
-1 -2 3 4 5 6 -7 8 9 10 11 -12 13 -14 -15 -16 -17 18 19 -20 -21 22 23 -24 25 26 -27 -28 29 30 0
1 2 -3 -4 5 6 -7 8 9 -10 11 -12 13 -14 -15 -16 -17 18 19 20 -21 22 23 -24 -25 26 -27 -28 29 -30 0
1 2 3 -4 -5 -6 -7 8 9 -10 -11 -12 13 -14 15 16 17 18 -19 -20 -21 -22 23 24 -25 -26 27 -28 -29 30 0
1 -2 -3 4 5 -6 7 8 -9 10 -11 -12 13 -14 15 16 17 18 -19 -20 -21 -22 23 24 -25 -26 27 -28 -29 30 0
1 2 3 -4 -5 6 7 8 -9 10 -11 -12 13 -14 15 -16 17 18 -19 -20 21 -22 23 24 -25 26 27 -28 -29 30 0
1 2 3 -4 -5 6 7 8 -9 10 -11 -12 13 -14 15 16 -17 18 -19 -20 21 -22 23 24 25 -26 -27 28 29 30 0
1 -2 -3 4 5 -6 7 8 -9 10 -11 -12 13 -14 15 16 -17 18 -19 -20 21 -22 23 24 25 -26 -27 28 29 30 0
1 2 3 -4 -5 6 7 8 -9 10 -11 -12 13 -14 15 16 -17 18 -19 -20 21 -22 23 24 -25 26 27 -28 -29 30 0
1 -2 -3 4 5 -6 7 8 -9 10 -11 -12 13 -14 15 16 -17 18 -19 -20 21 -22 23 24 -25 26 27 -28 -29 30 0
1 2 -3 -4 5 6 -7 8 9 -10 11 -12 13 -14 -15 -16 -17 18 -19 20 21 22 23 -24 25 26 27 28 -29 -30 0
1 2 -3 -4 5 6 -7 8 9 -10 11 -12 13 -14 -15 -16 -17 18 -19 20 -21 22 23 -24 25 26 -27 -28 29 30 0
-1 -2 3 4 5 6 -7 8 9 10 11 -12 13 -14 -15 -16 -17 18 -19 20 -21 22 23 -24 25 26 -27 -28 29 30 0
-1 -2 3 4 5 6 -7 8 9 10 11 -12 13 -14 -15 -16 -17 18 -19 20 21 22 23 -24 25 26 27 28 -29 -30 0
-1 2 -3 -4 5 -6 -7 8 9 -10 11 12 13 -14 -15 -16 -17 18 -19 20 -21 22 23 -24 25 26 -27 -28 29 30 0
-1 2 -3 -4 5 -6 -7 8 9 -10 11 12 13 -14 -15 -16 -17 18 -19 20 -21 -22 23 24 -25 26 27 28 -29 -30 0
1 2 -3 -4 5 6 -7 8 9 -10 -11 12 13 -14 -15 -16 -17 18 -19 20 21 22 23 -24 25 26 27 28 -29 -30 0
1 -2 -3 4 5 6 7 -8 9 10 -11 12 13 -14 -15 -16 -17 18 -19 20 21 22 23 -24 25 26 27 28 -29 -30 0
1 -2 -3 4 5 -6 7 -8 9 10 -11 12 13 -14 -15 16 -17 18 -19 20 -21 -22 23 24 -25 26 27 28 -29 -30 0
1 -2 -3 4 5 -6 7 8 -9 10 11 -12 -13 14 15 16 17 18 19 20 21 -22 -23 -24 -25 26 -27 28 29 -30 0
-1 -2 3 4 5 -6 7 8 -9 -10 11 -12 -13 14 -15 16 17 18 19 20 -21 22 -23 -24 25 -26 -27 28 -29 30 0
-1 -2 3 4 5 -6 7 8 -9 10 11 -12 -13 14 -15 16 17 18 19 -20 21 -22 -23 -24 25 26 -27 28 29 30 0
1 -2 -3 4 5 -6 7 8 -9 10 11 -12 -13 14 -15 16 17 18 19 -20 21 -22 -23 -24 25 26 -27 28 29 30 0
1 -2 3 4 5 -6 7 -8 9 10 11 -12 -13 14 15 16 17 18 19 20 21 -22 -23 -24 -25 26 -27 28 29 -30 0
-1 -2 3 4 5 -6 7 -8 9 10 11 -12 -13 14 15 16 17 18 19 20 21 -22 -23 -24 -25 26 -27 28 29 -30 0
1 2 3 -4 -5 6 7 -8 9 -10 11 12 -13 14 15 16 17 18 -19 20 -21 -22 -23 24 25 -26 27 28 29 30 0
1 2 3 -4 5 6 7 -8 9 -10 11 12 -13 14 -15 16 17 18 -19 20 -21 -22 -23 24 25 -26 27 28 29 30 0
1 2 3 -4 5 6 7 -8 9 -10 11 12 -13 -14 15 16 17 18 19 20 -21 -22 -23 -24 25 -26 27 28 -29 30 0
1 2 3 -4 -5 6 7 -8 9 -10 11 12 -13 -14 15 16 17 18 19 20 -21 -22 -23 -24 25 -26 27 28 -29 30 0
-1 -2 3 4 5 -6 7 8 9 10 11 -12 -13 -14 15 16 17 18 19 -20 21 -22 -23 -24 25 26 -27 28 29 30 0
-1 -2 3 4 5 -6 7 8 9 10 11 -12 -13 -14 15 16 17 18 19 -20 21 22 23 -24 25 26 27 28 -29 -30 0
1 2 3 -4 -5 6 7 8 9 -10 11 -12 -13 -14 15 -16 17 18 19 20 21 -22 23 24 25 -26 -27 28 29 30 0
1 2 3 -4 -5 -6 7 8 9 -10 -11 -12 -13 -14 15 16 17 18 19 20 -21 -22 23 24 25 -26 -27 28 29 30 0
-1 -2 3 4 5 -6 7 8 9 -10 11 -12 -13 -14 -15 16 17 18 19 20 21 -22 -23 -24 -25 26 -27 28 29 -30 0
-1 -2 3 4 5 -6 7 8 9 -10 11 -12 -13 -14 -15 16 17 18 19 20 21 22 23 -24 -25 26 27 28 -29 -30 0
-1 2 -3 -4 5 -6 -7 8 9 -10 11 12 13 -14 -15 16 17 18 19 20 21 22 23 -24 -25 26 27 28 -29 -30 0
-1 2 -3 -4 5 -6 -7 8 9 -10 11 12 13 -14 -15 16 17 18 19 20 -21 -22 23 24 25 -26 -27 28 29 30 0
1 -2 -3 4 5 6 -7 8 9 -10 11 12 13 -14 -15 16 17 18 19 20 -21 -22 23 24 25 -26 -27 28 29 30 0
-1 -2 3 4 5 -6 7 -8 9 -10 11 12 13 -14 -15 16 17 18 19 20 -21 -22 23 24 25 -26 -27 28 29 30 0
1 2 3 -4 5 6 7 -8 9 -10 11 12 13 -14 -15 16 17 18 19 20 -21 -22 23 24 25 -26 -27 28 29 30 0
1 2 -3 -4 5 6 7 -8 9 -10 11 12 13 -14 -15 16 17 18 19 20 -21 -22 23 24 25 -26 -27 28 29 30 0
-1 -2 3 4 5 -6 7 -8 9 -10 11 12 13 -14 -15 16 17 18 19 20 21 22 23 -24 -25 26 27 28 -29 -30 0
1 2 3 -4 5 6 7 -8 9 -10 11 12 13 -14 15 16 17 18 19 20 -21 -22 23 24 25 -26 -27 28 29 30 0
1 2 3 -4 -5 6 7 -8 9 -10 11 12 13 -14 15 16 17 18 19 20 -21 -22 23 24 25 -26 -27 28 29 30 0
1 2 -3 -4 5 6 7 -8 9 -10 11 12 13 -14 15 16 17 18 19 20 -21 -22 23 24 25 -26 -27 28 29 30 0
1 2 3 -4 -5 -6 7 -8 9 -10 -11 -12 13 14 15 16 17 18 19 20 -21 -22 23 24 25 -26 -27 28 29 30 0
1 -2 -3 4 -5 -6 7 8 -9 -10 -11 -12 13 14 15 16 17 18 19 20 -21 -22 23 24 25 -26 -27 28 29 30 0
-1 -2 3 -4 5 -6 7 -8 -9 10 11 12 13 14 15 16 17 18 19 20 -21 -22 23 -24 -25 -26 -27 28 -29 -30 0
-1 -2 3 -4 5 -6 7 -8 -9 10 11 12 13 14 15 16 17 18 19 20 21 22 23 -24 -25 26 27 28 -29 -30 0
1 2 3 -4 -5 -6 7 -8 9 -10 -11 -12 13 14 15 16 17 18 19 20 21 22 23 -24 -25 26 27 28 -29 -30 0
1 -2 3 4 5 -6 7 -8 9 10 -11 -12 13 14 15 16 17 18 19 20 21 22 23 -24 -25 26 27 28 -29 -30 0
1 -2 3 4 5 -6 7 -8 9 10 11 -12 13 14 15 16 17 18 19 20 21 22 23 -24 -25 26 27 28 -29 -30 0
-1 -2 3 4 5 -6 7 -8 9 10 11 -12 13 14 15 16 17 18 19 20 21 22 23 -24 -25 26 27 28 -29 -30 0
1 -2 -3 4 5 -6 7 -8 9 10 -11 -12 13 14 15 16 17 18 19 20 21 22 23 -24 -25 26 27 28 -29 -30 0
1 -2 -3 4 5 -6 7 -8 9 10 11 -12 13 14 15 16 17 18 19 20 21 22 23 -24 -25 26 27 28 -29 -30 0
-1 -2 3 -4 5 -6 7 -8 -9 10 11 12 13 14 15 16 17 18 19 20 21 -22 23 -24 -25 26 -27 -28 29 -30 0
-1 -2 3 4 5 -6 -7 8 9 10 11 12 13 14 15 16 17 18 19 20 21 22 23 -24 -25 26 27 28 -29 -30 0
1 -2 -3 4 -5 -6 7 8 -9 -10 -11 -12 13 14 15 16 17 18 19 20 21 22 23 -24 -25 26 27 28 -29 -30 0
1 2 -3 -4 5 -6 7 8 -9 10 -11 -12 13 14 15 16 17 18 19 20 21 22 23 -24 -25 26 27 28 -29 -30 0
-1 -2 3 -4 -5 -6 -7 8 -9 -10 11 12 13 14 15 16 17 18 19 20 21 22 23 -24 -25 26 27 28 -29 -30 0
-1 2 -3 -4 5 -6 -7 8 -9 10 11 12 13 14 15 16 17 18 19 20 21 22 23 -24 -25 26 27 28 -29 -30 0
1 2 3 -4 -5 6 7 8 -9 -10 11 12 13 14 15 16 17 18 -19 -20 -21 22 -23 24 -25 -26 -27 28 29 30 0
-1 -2 3 4 5 -6 -7 8 9 10 11 12 13 14 15 16 17 18 -19 -20 -21 22 -23 24 -25 -26 -27 28 29 30 0
-1 -2 3 4 5 -6 -7 8 9 10 11 12 13 14 15 16 17 18 -19 -20 21 22 -23 24 -25 26 27 28 -29 30 0
-1 -2 3 4 5 -6 -7 8 9 10 11 12 13 14 15 16 17 18 -19 20 21 22 -23 24 -25 26 27 28 -29 30 0
-1 -2 3 4 5 -6 -7 8 9 10 11 12 13 14 15 16 17 18 -19 20 21 22 -23 24 -25 26 27 28 -29 -30 0
-1 -2 3 4 5 -6 -7 8 9 10 11 12 13 14 15 16 17 18 -19 20 21 22 -23 24 -25 26 27 -28 -29 30 0
-1 -2 3 4 5 -6 -7 8 9 10 11 12 13 14 15 16 17 18 -19 -20 21 22 -23 24 -25 26 27 -28 -29 30 0
-1 -2 3 4 5 -6 -7 8 9 10 11 12 13 14 15 -16 -17 18 19 20 -21 22 23 -24 -25 26 -27 -28 29 -30 0
1 2 3 -4 -5 6 7 8 -9 -10 11 12 13 14 15 -16 -17 18 19 20 -21 22 23 -24 -25 26 -27 -28 29 -30 0
1 2 3 -4 -5 6 7 8 -9 -10 11 12 13 14 15 -16 -17 18 19 20 -21 22 23 -24 25 26 27 -28 -29 30 0
