c Conway Life B3/S23 on a 4x4 finite torus
c exact period 2; population at time 0 <= 2
c vars 1..16=time0, 17..32=time1, 33..48=XOR differences
p cnf 48 17009
1 16 13 14 4 2 8 5 6 -17 0
1 16 13 14 4 2 8 5 -6 -17 0
1 16 13 14 4 2 8 -5 6 -17 0
1 16 13 14 4 2 8 -5 -6 -17 0
1 16 13 14 4 2 -8 5 6 -17 0
1 16 13 14 4 2 -8 5 -6 -17 0
1 16 13 14 4 2 -8 -5 6 -17 0
1 16 13 14 4 2 -8 -5 -6 17 0
1 16 13 14 4 -2 8 5 6 -17 0
1 16 13 14 4 -2 8 5 -6 -17 0
1 16 13 14 4 -2 8 -5 6 -17 0
1 16 13 14 4 -2 8 -5 -6 17 0
1 16 13 14 4 -2 -8 5 6 -17 0
1 16 13 14 4 -2 -8 5 -6 17 0
1 16 13 14 4 -2 -8 -5 6 17 0
1 16 13 14 4 -2 -8 -5 -6 -17 0
1 16 13 14 -4 2 8 5 6 -17 0
1 16 13 14 -4 2 8 5 -6 -17 0
1 16 13 14 -4 2 8 -5 6 -17 0
1 16 13 14 -4 2 8 -5 -6 17 0
1 16 13 14 -4 2 -8 5 6 -17 0
1 16 13 14 -4 2 -8 5 -6 17 0
1 16 13 14 -4 2 -8 -5 6 17 0
1 16 13 14 -4 2 -8 -5 -6 -17 0
1 16 13 14 -4 -2 8 5 6 -17 0
1 16 13 14 -4 -2 8 5 -6 17 0
1 16 13 14 -4 -2 8 -5 6 17 0
1 16 13 14 -4 -2 8 -5 -6 -17 0
1 16 13 14 -4 -2 -8 5 6 17 0
1 16 13 14 -4 -2 -8 5 -6 -17 0
1 16 13 14 -4 -2 -8 -5 6 -17 0
1 16 13 14 -4 -2 -8 -5 -6 -17 0
1 16 13 -14 4 2 8 5 6 -17 0
1 16 13 -14 4 2 8 5 -6 -17 0
1 16 13 -14 4 2 8 -5 6 -17 0
1 16 13 -14 4 2 8 -5 -6 17 0
1 16 13 -14 4 2 -8 5 6 -17 0
1 16 13 -14 4 2 -8 5 -6 17 0
1 16 13 -14 4 2 -8 -5 6 17 0
1 16 13 -14 4 2 -8 -5 -6 -17 0
1 16 13 -14 4 -2 8 5 6 -17 0
1 16 13 -14 4 -2 8 5 -6 17 0
1 16 13 -14 4 -2 8 -5 6 17 0
1 16 13 -14 4 -2 8 -5 -6 -17 0
1 16 13 -14 4 -2 -8 5 6 17 0
1 16 13 -14 4 -2 -8 5 -6 -17 0
1 16 13 -14 4 -2 -8 -5 6 -17 0
1 16 13 -14 4 -2 -8 -5 -6 -17 0
1 16 13 -14 -4 2 8 5 6 -17 0
1 16 13 -14 -4 2 8 5 -6 17 0
1 16 13 -14 -4 2 8 -5 6 17 0
1 16 13 -14 -4 2 8 -5 -6 -17 0
1 16 13 -14 -4 2 -8 5 6 17 0
1 16 13 -14 -4 2 -8 5 -6 -17 0
1 16 13 -14 -4 2 -8 -5 6 -17 0
1 16 13 -14 -4 2 -8 -5 -6 -17 0
1 16 13 -14 -4 -2 8 5 6 17 0
1 16 13 -14 -4 -2 8 5 -6 -17 0
1 16 13 -14 -4 -2 8 -5 6 -17 0
1 16 13 -14 -4 -2 8 -5 -6 -17 0
1 16 13 -14 -4 -2 -8 5 6 -17 0
1 16 13 -14 -4 -2 -8 5 -6 -17 0
1 16 13 -14 -4 -2 -8 -5 6 -17 0
1 16 13 -14 -4 -2 -8 -5 -6 -17 0
1 16 -13 14 4 2 8 5 6 -17 0
1 16 -13 14 4 2 8 5 -6 -17 0
1 16 -13 14 4 2 8 -5 6 -17 0
1 16 -13 14 4 2 8 -5 -6 17 0
1 16 -13 14 4 2 -8 5 6 -17 0
1 16 -13 14 4 2 -8 5 -6 17 0
1 16 -13 14 4 2 -8 -5 6 17 0
1 16 -13 14 4 2 -8 -5 -6 -17 0
1 16 -13 14 4 -2 8 5 6 -17 0
1 16 -13 14 4 -2 8 5 -6 17 0
1 16 -13 14 4 -2 8 -5 6 17 0
1 16 -13 14 4 -2 8 -5 -6 -17 0
1 16 -13 14 4 -2 -8 5 6 17 0
1 16 -13 14 4 -2 -8 5 -6 -17 0
1 16 -13 14 4 -2 -8 -5 6 -17 0
1 16 -13 14 4 -2 -8 -5 -6 -17 0
1 16 -13 14 -4 2 8 5 6 -17 0
1 16 -13 14 -4 2 8 5 -6 17 0
1 16 -13 14 -4 2 8 -5 6 17 0
1 16 -13 14 -4 2 8 -5 -6 -17 0
1 16 -13 14 -4 2 -8 5 6 17 0
1 16 -13 14 -4 2 -8 5 -6 -17 0
1 16 -13 14 -4 2 -8 -5 6 -17 0
1 16 -13 14 -4 2 -8 -5 -6 -17 0
1 16 -13 14 -4 -2 8 5 6 17 0
1 16 -13 14 -4 -2 8 5 -6 -17 0
1 16 -13 14 -4 -2 8 -5 6 -17 0
1 16 -13 14 -4 -2 8 -5 -6 -17 0
1 16 -13 14 -4 -2 -8 5 6 -17 0
1 16 -13 14 -4 -2 -8 5 -6 -17 0
1 16 -13 14 -4 -2 -8 -5 6 -17 0
1 16 -13 14 -4 -2 -8 -5 -6 -17 0
1 16 -13 -14 4 2 8 5 6 -17 0
1 16 -13 -14 4 2 8 5 -6 17 0
1 16 -13 -14 4 2 8 -5 6 17 0
1 16 -13 -14 4 2 8 -5 -6 -17 0
1 16 -13 -14 4 2 -8 5 6 17 0
1 16 -13 -14 4 2 -8 5 -6 -17 0
1 16 -13 -14 4 2 -8 -5 6 -17 0
1 16 -13 -14 4 2 -8 -5 -6 -17 0
1 16 -13 -14 4 -2 8 5 6 17 0
1 16 -13 -14 4 -2 8 5 -6 -17 0
1 16 -13 -14 4 -2 8 -5 6 -17 0
1 16 -13 -14 4 -2 8 -5 -6 -17 0
1 16 -13 -14 4 -2 -8 5 6 -17 0
1 16 -13 -14 4 -2 -8 5 -6 -17 0
1 16 -13 -14 4 -2 -8 -5 6 -17 0
1 16 -13 -14 4 -2 -8 -5 -6 -17 0
1 16 -13 -14 -4 2 8 5 6 17 0
1 16 -13 -14 -4 2 8 5 -6 -17 0
1 16 -13 -14 -4 2 8 -5 6 -17 0
1 16 -13 -14 -4 2 8 -5 -6 -17 0
1 16 -13 -14 -4 2 -8 5 6 -17 0
1 16 -13 -14 -4 2 -8 5 -6 -17 0
1 16 -13 -14 -4 2 -8 -5 6 -17 0
1 16 -13 -14 -4 2 -8 -5 -6 -17 0
1 16 -13 -14 -4 -2 8 5 6 -17 0
1 16 -13 -14 -4 -2 8 5 -6 -17 0
1 16 -13 -14 -4 -2 8 -5 6 -17 0
1 16 -13 -14 -4 -2 8 -5 -6 -17 0
1 16 -13 -14 -4 -2 -8 5 6 -17 0
1 16 -13 -14 -4 -2 -8 5 -6 -17 0
1 16 -13 -14 -4 -2 -8 -5 6 -17 0
1 16 -13 -14 -4 -2 -8 -5 -6 -17 0
1 -16 13 14 4 2 8 5 6 -17 0
1 -16 13 14 4 2 8 5 -6 -17 0
1 -16 13 14 4 2 8 -5 6 -17 0
1 -16 13 14 4 2 8 -5 -6 17 0
1 -16 13 14 4 2 -8 5 6 -17 0
1 -16 13 14 4 2 -8 5 -6 17 0
1 -16 13 14 4 2 -8 -5 6 17 0
1 -16 13 14 4 2 -8 -5 -6 -17 0
1 -16 13 14 4 -2 8 5 6 -17 0
1 -16 13 14 4 -2 8 5 -6 17 0
1 -16 13 14 4 -2 8 -5 6 17 0
1 -16 13 14 4 -2 8 -5 -6 -17 0
1 -16 13 14 4 -2 -8 5 6 17 0
1 -16 13 14 4 -2 -8 5 -6 -17 0
1 -16 13 14 4 -2 -8 -5 6 -17 0
1 -16 13 14 4 -2 -8 -5 -6 -17 0
1 -16 13 14 -4 2 8 5 6 -17 0
1 -16 13 14 -4 2 8 5 -6 17 0
1 -16 13 14 -4 2 8 -5 6 17 0
1 -16 13 14 -4 2 8 -5 -6 -17 0
1 -16 13 14 -4 2 -8 5 6 17 0
1 -16 13 14 -4 2 -8 5 -6 -17 0
1 -16 13 14 -4 2 -8 -5 6 -17 0
1 -16 13 14 -4 2 -8 -5 -6 -17 0
1 -16 13 14 -4 -2 8 5 6 17 0
1 -16 13 14 -4 -2 8 5 -6 -17 0
1 -16 13 14 -4 -2 8 -5 6 -17 0
1 -16 13 14 -4 -2 8 -5 -6 -17 0
1 -16 13 14 -4 -2 -8 5 6 -17 0
1 -16 13 14 -4 -2 -8 5 -6 -17 0
1 -16 13 14 -4 -2 -8 -5 6 -17 0
1 -16 13 14 -4 -2 -8 -5 -6 -17 0
1 -16 13 -14 4 2 8 5 6 -17 0
1 -16 13 -14 4 2 8 5 -6 17 0
1 -16 13 -14 4 2 8 -5 6 17 0
1 -16 13 -14 4 2 8 -5 -6 -17 0
1 -16 13 -14 4 2 -8 5 6 17 0
1 -16 13 -14 4 2 -8 5 -6 -17 0
1 -16 13 -14 4 2 -8 -5 6 -17 0
1 -16 13 -14 4 2 -8 -5 -6 -17 0
1 -16 13 -14 4 -2 8 5 6 17 0
1 -16 13 -14 4 -2 8 5 -6 -17 0
1 -16 13 -14 4 -2 8 -5 6 -17 0
1 -16 13 -14 4 -2 8 -5 -6 -17 0
1 -16 13 -14 4 -2 -8 5 6 -17 0
1 -16 13 -14 4 -2 -8 5 -6 -17 0
1 -16 13 -14 4 -2 -8 -5 6 -17 0
1 -16 13 -14 4 -2 -8 -5 -6 -17 0
1 -16 13 -14 -4 2 8 5 6 17 0
1 -16 13 -14 -4 2 8 5 -6 -17 0
1 -16 13 -14 -4 2 8 -5 6 -17 0
1 -16 13 -14 -4 2 8 -5 -6 -17 0
1 -16 13 -14 -4 2 -8 5 6 -17 0
1 -16 13 -14 -4 2 -8 5 -6 -17 0
1 -16 13 -14 -4 2 -8 -5 6 -17 0
1 -16 13 -14 -4 2 -8 -5 -6 -17 0
1 -16 13 -14 -4 -2 8 5 6 -17 0
1 -16 13 -14 -4 -2 8 5 -6 -17 0
1 -16 13 -14 -4 -2 8 -5 6 -17 0
1 -16 13 -14 -4 -2 8 -5 -6 -17 0
1 -16 13 -14 -4 -2 -8 5 6 -17 0
1 -16 13 -14 -4 -2 -8 5 -6 -17 0
1 -16 13 -14 -4 -2 -8 -5 6 -17 0
1 -16 13 -14 -4 -2 -8 -5 -6 -17 0
1 -16 -13 14 4 2 8 5 6 -17 0
1 -16 -13 14 4 2 8 5 -6 17 0
1 -16 -13 14 4 2 8 -5 6 17 0
1 -16 -13 14 4 2 8 -5 -6 -17 0
1 -16 -13 14 4 2 -8 5 6 17 0
1 -16 -13 14 4 2 -8 5 -6 -17 0
1 -16 -13 14 4 2 -8 -5 6 -17 0
1 -16 -13 14 4 2 -8 -5 -6 -17 0
1 -16 -13 14 4 -2 8 5 6 17 0
1 -16 -13 14 4 -2 8 5 -6 -17 0
1 -16 -13 14 4 -2 8 -5 6 -17 0
1 -16 -13 14 4 -2 8 -5 -6 -17 0
1 -16 -13 14 4 -2 -8 5 6 -17 0
1 -16 -13 14 4 -2 -8 5 -6 -17 0
1 -16 -13 14 4 -2 -8 -5 6 -17 0
1 -16 -13 14 4 -2 -8 -5 -6 -17 0
1 -16 -13 14 -4 2 8 5 6 17 0
1 -16 -13 14 -4 2 8 5 -6 -17 0
1 -16 -13 14 -4 2 8 -5 6 -17 0
1 -16 -13 14 -4 2 8 -5 -6 -17 0
1 -16 -13 14 -4 2 -8 5 6 -17 0
1 -16 -13 14 -4 2 -8 5 -6 -17 0
1 -16 -13 14 -4 2 -8 -5 6 -17 0
1 -16 -13 14 -4 2 -8 -5 -6 -17 0
1 -16 -13 14 -4 -2 8 5 6 -17 0
1 -16 -13 14 -4 -2 8 5 -6 -17 0
1 -16 -13 14 -4 -2 8 -5 6 -17 0
1 -16 -13 14 -4 -2 8 -5 -6 -17 0
1 -16 -13 14 -4 -2 -8 5 6 -17 0
1 -16 -13 14 -4 -2 -8 5 -6 -17 0
1 -16 -13 14 -4 -2 -8 -5 6 -17 0
1 -16 -13 14 -4 -2 -8 -5 -6 -17 0
1 -16 -13 -14 4 2 8 5 6 17 0
1 -16 -13 -14 4 2 8 5 -6 -17 0
1 -16 -13 -14 4 2 8 -5 6 -17 0
1 -16 -13 -14 4 2 8 -5 -6 -17 0
1 -16 -13 -14 4 2 -8 5 6 -17 0
1 -16 -13 -14 4 2 -8 5 -6 -17 0
1 -16 -13 -14 4 2 -8 -5 6 -17 0
1 -16 -13 -14 4 2 -8 -5 -6 -17 0
1 -16 -13 -14 4 -2 8 5 6 -17 0
1 -16 -13 -14 4 -2 8 5 -6 -17 0
1 -16 -13 -14 4 -2 8 -5 6 -17 0
1 -16 -13 -14 4 -2 8 -5 -6 -17 0
1 -16 -13 -14 4 -2 -8 5 6 -17 0
1 -16 -13 -14 4 -2 -8 5 -6 -17 0
1 -16 -13 -14 4 -2 -8 -5 6 -17 0
1 -16 -13 -14 4 -2 -8 -5 -6 -17 0
1 -16 -13 -14 -4 2 8 5 6 -17 0
1 -16 -13 -14 -4 2 8 5 -6 -17 0
1 -16 -13 -14 -4 2 8 -5 6 -17 0
1 -16 -13 -14 -4 2 8 -5 -6 -17 0
1 -16 -13 -14 -4 2 -8 5 6 -17 0
1 -16 -13 -14 -4 2 -8 5 -6 -17 0
1 -16 -13 -14 -4 2 -8 -5 6 -17 0
1 -16 -13 -14 -4 2 -8 -5 -6 -17 0
1 -16 -13 -14 -4 -2 8 5 6 -17 0
1 -16 -13 -14 -4 -2 8 5 -6 -17 0
1 -16 -13 -14 -4 -2 8 -5 6 -17 0
1 -16 -13 -14 -4 -2 8 -5 -6 -17 0
1 -16 -13 -14 -4 -2 -8 5 6 -17 0
1 -16 -13 -14 -4 -2 -8 5 -6 -17 0
1 -16 -13 -14 -4 -2 -8 -5 6 -17 0
1 -16 -13 -14 -4 -2 -8 -5 -6 -17 0
-1 16 13 14 4 2 8 5 6 -17 0
-1 16 13 14 4 2 8 5 -6 -17 0
-1 16 13 14 4 2 8 -5 6 -17 0
-1 16 13 14 4 2 8 -5 -6 17 0
-1 16 13 14 4 2 -8 5 6 -17 0
-1 16 13 14 4 2 -8 5 -6 17 0
-1 16 13 14 4 2 -8 -5 6 17 0
-1 16 13 14 4 2 -8 -5 -6 17 0
-1 16 13 14 4 -2 8 5 6 -17 0
-1 16 13 14 4 -2 8 5 -6 17 0
-1 16 13 14 4 -2 8 -5 6 17 0
-1 16 13 14 4 -2 8 -5 -6 17 0
-1 16 13 14 4 -2 -8 5 6 17 0
-1 16 13 14 4 -2 -8 5 -6 17 0
-1 16 13 14 4 -2 -8 -5 6 17 0
-1 16 13 14 4 -2 -8 -5 -6 -17 0
-1 16 13 14 -4 2 8 5 6 -17 0
-1 16 13 14 -4 2 8 5 -6 17 0
-1 16 13 14 -4 2 8 -5 6 17 0
-1 16 13 14 -4 2 8 -5 -6 17 0
-1 16 13 14 -4 2 -8 5 6 17 0
-1 16 13 14 -4 2 -8 5 -6 17 0
-1 16 13 14 -4 2 -8 -5 6 17 0
-1 16 13 14 -4 2 -8 -5 -6 -17 0
-1 16 13 14 -4 -2 8 5 6 17 0
-1 16 13 14 -4 -2 8 5 -6 17 0
-1 16 13 14 -4 -2 8 -5 6 17 0
-1 16 13 14 -4 -2 8 -5 -6 -17 0
-1 16 13 14 -4 -2 -8 5 6 17 0
-1 16 13 14 -4 -2 -8 5 -6 -17 0
-1 16 13 14 -4 -2 -8 -5 6 -17 0
-1 16 13 14 -4 -2 -8 -5 -6 -17 0
-1 16 13 -14 4 2 8 5 6 -17 0
-1 16 13 -14 4 2 8 5 -6 17 0
-1 16 13 -14 4 2 8 -5 6 17 0
-1 16 13 -14 4 2 8 -5 -6 17 0
-1 16 13 -14 4 2 -8 5 6 17 0
-1 16 13 -14 4 2 -8 5 -6 17 0
-1 16 13 -14 4 2 -8 -5 6 17 0
-1 16 13 -14 4 2 -8 -5 -6 -17 0
-1 16 13 -14 4 -2 8 5 6 17 0
-1 16 13 -14 4 -2 8 5 -6 17 0
-1 16 13 -14 4 -2 8 -5 6 17 0
-1 16 13 -14 4 -2 8 -5 -6 -17 0
-1 16 13 -14 4 -2 -8 5 6 17 0
-1 16 13 -14 4 -2 -8 5 -6 -17 0
-1 16 13 -14 4 -2 -8 -5 6 -17 0
-1 16 13 -14 4 -2 -8 -5 -6 -17 0
-1 16 13 -14 -4 2 8 5 6 17 0
-1 16 13 -14 -4 2 8 5 -6 17 0
-1 16 13 -14 -4 2 8 -5 6 17 0
-1 16 13 -14 -4 2 8 -5 -6 -17 0
-1 16 13 -14 -4 2 -8 5 6 17 0
-1 16 13 -14 -4 2 -8 5 -6 -17 0
-1 16 13 -14 -4 2 -8 -5 6 -17 0
-1 16 13 -14 -4 2 -8 -5 -6 -17 0
-1 16 13 -14 -4 -2 8 5 6 17 0
-1 16 13 -14 -4 -2 8 5 -6 -17 0
-1 16 13 -14 -4 -2 8 -5 6 -17 0
-1 16 13 -14 -4 -2 8 -5 -6 -17 0
-1 16 13 -14 -4 -2 -8 5 6 -17 0
-1 16 13 -14 -4 -2 -8 5 -6 -17 0
-1 16 13 -14 -4 -2 -8 -5 6 -17 0
-1 16 13 -14 -4 -2 -8 -5 -6 -17 0
-1 16 -13 14 4 2 8 5 6 -17 0
-1 16 -13 14 4 2 8 5 -6 17 0
-1 16 -13 14 4 2 8 -5 6 17 0
-1 16 -13 14 4 2 8 -5 -6 17 0
-1 16 -13 14 4 2 -8 5 6 17 0
-1 16 -13 14 4 2 -8 5 -6 17 0
-1 16 -13 14 4 2 -8 -5 6 17 0
-1 16 -13 14 4 2 -8 -5 -6 -17 0
-1 16 -13 14 4 -2 8 5 6 17 0
-1 16 -13 14 4 -2 8 5 -6 17 0
-1 16 -13 14 4 -2 8 -5 6 17 0
-1 16 -13 14 4 -2 8 -5 -6 -17 0
-1 16 -13 14 4 -2 -8 5 6 17 0
-1 16 -13 14 4 -2 -8 5 -6 -17 0
-1 16 -13 14 4 -2 -8 -5 6 -17 0
-1 16 -13 14 4 -2 -8 -5 -6 -17 0
-1 16 -13 14 -4 2 8 5 6 17 0
-1 16 -13 14 -4 2 8 5 -6 17 0
-1 16 -13 14 -4 2 8 -5 6 17 0
-1 16 -13 14 -4 2 8 -5 -6 -17 0
-1 16 -13 14 -4 2 -8 5 6 17 0
-1 16 -13 14 -4 2 -8 5 -6 -17 0
-1 16 -13 14 -4 2 -8 -5 6 -17 0
-1 16 -13 14 -4 2 -8 -5 -6 -17 0
-1 16 -13 14 -4 -2 8 5 6 17 0
-1 16 -13 14 -4 -2 8 5 -6 -17 0
-1 16 -13 14 -4 -2 8 -5 6 -17 0
-1 16 -13 14 -4 -2 8 -5 -6 -17 0
-1 16 -13 14 -4 -2 -8 5 6 -17 0
-1 16 -13 14 -4 -2 -8 5 -6 -17 0
-1 16 -13 14 -4 -2 -8 -5 6 -17 0
-1 16 -13 14 -4 -2 -8 -5 -6 -17 0
-1 16 -13 -14 4 2 8 5 6 17 0
-1 16 -13 -14 4 2 8 5 -6 17 0
-1 16 -13 -14 4 2 8 -5 6 17 0
-1 16 -13 -14 4 2 8 -5 -6 -17 0
-1 16 -13 -14 4 2 -8 5 6 17 0
-1 16 -13 -14 4 2 -8 5 -6 -17 0
-1 16 -13 -14 4 2 -8 -5 6 -17 0
-1 16 -13 -14 4 2 -8 -5 -6 -17 0
-1 16 -13 -14 4 -2 8 5 6 17 0
-1 16 -13 -14 4 -2 8 5 -6 -17 0
-1 16 -13 -14 4 -2 8 -5 6 -17 0
-1 16 -13 -14 4 -2 8 -5 -6 -17 0
-1 16 -13 -14 4 -2 -8 5 6 -17 0
-1 16 -13 -14 4 -2 -8 5 -6 -17 0
-1 16 -13 -14 4 -2 -8 -5 6 -17 0
-1 16 -13 -14 4 -2 -8 -5 -6 -17 0
-1 16 -13 -14 -4 2 8 5 6 17 0
-1 16 -13 -14 -4 2 8 5 -6 -17 0
-1 16 -13 -14 -4 2 8 -5 6 -17 0
-1 16 -13 -14 -4 2 8 -5 -6 -17 0
-1 16 -13 -14 -4 2 -8 5 6 -17 0
-1 16 -13 -14 -4 2 -8 5 -6 -17 0
-1 16 -13 -14 -4 2 -8 -5 6 -17 0
-1 16 -13 -14 -4 2 -8 -5 -6 -17 0
-1 16 -13 -14 -4 -2 8 5 6 -17 0
-1 16 -13 -14 -4 -2 8 5 -6 -17 0
-1 16 -13 -14 -4 -2 8 -5 6 -17 0
-1 16 -13 -14 -4 -2 8 -5 -6 -17 0
-1 16 -13 -14 -4 -2 -8 5 6 -17 0
-1 16 -13 -14 -4 -2 -8 5 -6 -17 0
-1 16 -13 -14 -4 -2 -8 -5 6 -17 0
-1 16 -13 -14 -4 -2 -8 -5 -6 -17 0
-1 -16 13 14 4 2 8 5 6 -17 0
-1 -16 13 14 4 2 8 5 -6 17 0
-1 -16 13 14 4 2 8 -5 6 17 0
-1 -16 13 14 4 2 8 -5 -6 17 0
-1 -16 13 14 4 2 -8 5 6 17 0
-1 -16 13 14 4 2 -8 5 -6 17 0
-1 -16 13 14 4 2 -8 -5 6 17 0
-1 -16 13 14 4 2 -8 -5 -6 -17 0
-1 -16 13 14 4 -2 8 5 6 17 0
-1 -16 13 14 4 -2 8 5 -6 17 0
-1 -16 13 14 4 -2 8 -5 6 17 0
-1 -16 13 14 4 -2 8 -5 -6 -17 0
-1 -16 13 14 4 -2 -8 5 6 17 0
-1 -16 13 14 4 -2 -8 5 -6 -17 0
-1 -16 13 14 4 -2 -8 -5 6 -17 0
-1 -16 13 14 4 -2 -8 -5 -6 -17 0
-1 -16 13 14 -4 2 8 5 6 17 0
-1 -16 13 14 -4 2 8 5 -6 17 0
-1 -16 13 14 -4 2 8 -5 6 17 0
-1 -16 13 14 -4 2 8 -5 -6 -17 0
-1 -16 13 14 -4 2 -8 5 6 17 0
-1 -16 13 14 -4 2 -8 5 -6 -17 0
-1 -16 13 14 -4 2 -8 -5 6 -17 0
-1 -16 13 14 -4 2 -8 -5 -6 -17 0
-1 -16 13 14 -4 -2 8 5 6 17 0
-1 -16 13 14 -4 -2 8 5 -6 -17 0
-1 -16 13 14 -4 -2 8 -5 6 -17 0
-1 -16 13 14 -4 -2 8 -5 -6 -17 0
-1 -16 13 14 -4 -2 -8 5 6 -17 0
-1 -16 13 14 -4 -2 -8 5 -6 -17 0
-1 -16 13 14 -4 -2 -8 -5 6 -17 0
-1 -16 13 14 -4 -2 -8 -5 -6 -17 0
-1 -16 13 -14 4 2 8 5 6 17 0
-1 -16 13 -14 4 2 8 5 -6 17 0
-1 -16 13 -14 4 2 8 -5 6 17 0
-1 -16 13 -14 4 2 8 -5 -6 -17 0
-1 -16 13 -14 4 2 -8 5 6 17 0
-1 -16 13 -14 4 2 -8 5 -6 -17 0
-1 -16 13 -14 4 2 -8 -5 6 -17 0
-1 -16 13 -14 4 2 -8 -5 -6 -17 0
-1 -16 13 -14 4 -2 8 5 6 17 0
-1 -16 13 -14 4 -2 8 5 -6 -17 0
-1 -16 13 -14 4 -2 8 -5 6 -17 0
-1 -16 13 -14 4 -2 8 -5 -6 -17 0
-1 -16 13 -14 4 -2 -8 5 6 -17 0
-1 -16 13 -14 4 -2 -8 5 -6 -17 0
-1 -16 13 -14 4 -2 -8 -5 6 -17 0
-1 -16 13 -14 4 -2 -8 -5 -6 -17 0
-1 -16 13 -14 -4 2 8 5 6 17 0
-1 -16 13 -14 -4 2 8 5 -6 -17 0
-1 -16 13 -14 -4 2 8 -5 6 -17 0
-1 -16 13 -14 -4 2 8 -5 -6 -17 0
-1 -16 13 -14 -4 2 -8 5 6 -17 0
-1 -16 13 -14 -4 2 -8 5 -6 -17 0
-1 -16 13 -14 -4 2 -8 -5 6 -17 0
-1 -16 13 -14 -4 2 -8 -5 -6 -17 0
-1 -16 13 -14 -4 -2 8 5 6 -17 0
-1 -16 13 -14 -4 -2 8 5 -6 -17 0
-1 -16 13 -14 -4 -2 8 -5 6 -17 0
-1 -16 13 -14 -4 -2 8 -5 -6 -17 0
-1 -16 13 -14 -4 -2 -8 5 6 -17 0
-1 -16 13 -14 -4 -2 -8 5 -6 -17 0
-1 -16 13 -14 -4 -2 -8 -5 6 -17 0
-1 -16 13 -14 -4 -2 -8 -5 -6 -17 0
-1 -16 -13 14 4 2 8 5 6 17 0
-1 -16 -13 14 4 2 8 5 -6 17 0
-1 -16 -13 14 4 2 8 -5 6 17 0
-1 -16 -13 14 4 2 8 -5 -6 -17 0
-1 -16 -13 14 4 2 -8 5 6 17 0
-1 -16 -13 14 4 2 -8 5 -6 -17 0
-1 -16 -13 14 4 2 -8 -5 6 -17 0
-1 -16 -13 14 4 2 -8 -5 -6 -17 0
-1 -16 -13 14 4 -2 8 5 6 17 0
-1 -16 -13 14 4 -2 8 5 -6 -17 0
-1 -16 -13 14 4 -2 8 -5 6 -17 0
-1 -16 -13 14 4 -2 8 -5 -6 -17 0
-1 -16 -13 14 4 -2 -8 5 6 -17 0
-1 -16 -13 14 4 -2 -8 5 -6 -17 0
-1 -16 -13 14 4 -2 -8 -5 6 -17 0
-1 -16 -13 14 4 -2 -8 -5 -6 -17 0
-1 -16 -13 14 -4 2 8 5 6 17 0
-1 -16 -13 14 -4 2 8 5 -6 -17 0
-1 -16 -13 14 -4 2 8 -5 6 -17 0
-1 -16 -13 14 -4 2 8 -5 -6 -17 0
-1 -16 -13 14 -4 2 -8 5 6 -17 0
-1 -16 -13 14 -4 2 -8 5 -6 -17 0
-1 -16 -13 14 -4 2 -8 -5 6 -17 0
-1 -16 -13 14 -4 2 -8 -5 -6 -17 0
-1 -16 -13 14 -4 -2 8 5 6 -17 0
-1 -16 -13 14 -4 -2 8 5 -6 -17 0
-1 -16 -13 14 -4 -2 8 -5 6 -17 0
-1 -16 -13 14 -4 -2 8 -5 -6 -17 0
-1 -16 -13 14 -4 -2 -8 5 6 -17 0
-1 -16 -13 14 -4 -2 -8 5 -6 -17 0
-1 -16 -13 14 -4 -2 -8 -5 6 -17 0
-1 -16 -13 14 -4 -2 -8 -5 -6 -17 0
-1 -16 -13 -14 4 2 8 5 6 17 0
-1 -16 -13 -14 4 2 8 5 -6 -17 0
-1 -16 -13 -14 4 2 8 -5 6 -17 0
-1 -16 -13 -14 4 2 8 -5 -6 -17 0
-1 -16 -13 -14 4 2 -8 5 6 -17 0
-1 -16 -13 -14 4 2 -8 5 -6 -17 0
-1 -16 -13 -14 4 2 -8 -5 6 -17 0
-1 -16 -13 -14 4 2 -8 -5 -6 -17 0
-1 -16 -13 -14 4 -2 8 5 6 -17 0
-1 -16 -13 -14 4 -2 8 5 -6 -17 0
-1 -16 -13 -14 4 -2 8 -5 6 -17 0
-1 -16 -13 -14 4 -2 8 -5 -6 -17 0
-1 -16 -13 -14 4 -2 -8 5 6 -17 0
-1 -16 -13 -14 4 -2 -8 5 -6 -17 0
-1 -16 -13 -14 4 -2 -8 -5 6 -17 0
-1 -16 -13 -14 4 -2 -8 -5 -6 -17 0
-1 -16 -13 -14 -4 2 8 5 6 -17 0
-1 -16 -13 -14 -4 2 8 5 -6 -17 0
-1 -16 -13 -14 -4 2 8 -5 6 -17 0
-1 -16 -13 -14 -4 2 8 -5 -6 -17 0
-1 -16 -13 -14 -4 2 -8 5 6 -17 0
-1 -16 -13 -14 -4 2 -8 5 -6 -17 0
-1 -16 -13 -14 -4 2 -8 -5 6 -17 0
-1 -16 -13 -14 -4 2 -8 -5 -6 -17 0
-1 -16 -13 -14 -4 -2 8 5 6 -17 0
-1 -16 -13 -14 -4 -2 8 5 -6 -17 0
-1 -16 -13 -14 -4 -2 8 -5 6 -17 0
-1 -16 -13 -14 -4 -2 8 -5 -6 -17 0
-1 -16 -13 -14 -4 -2 -8 5 6 -17 0
-1 -16 -13 -14 -4 -2 -8 5 -6 -17 0
-1 -16 -13 -14 -4 -2 -8 -5 6 -17 0
-1 -16 -13 -14 -4 -2 -8 -5 -6 -17 0
2 13 14 15 1 3 5 6 7 -18 0
2 13 14 15 1 3 5 6 -7 -18 0
2 13 14 15 1 3 5 -6 7 -18 0
2 13 14 15 1 3 5 -6 -7 -18 0
2 13 14 15 1 3 -5 6 7 -18 0
2 13 14 15 1 3 -5 6 -7 -18 0
2 13 14 15 1 3 -5 -6 7 -18 0
2 13 14 15 1 3 -5 -6 -7 18 0
2 13 14 15 1 -3 5 6 7 -18 0
2 13 14 15 1 -3 5 6 -7 -18 0
2 13 14 15 1 -3 5 -6 7 -18 0
2 13 14 15 1 -3 5 -6 -7 18 0
2 13 14 15 1 -3 -5 6 7 -18 0
2 13 14 15 1 -3 -5 6 -7 18 0
2 13 14 15 1 -3 -5 -6 7 18 0
2 13 14 15 1 -3 -5 -6 -7 -18 0
2 13 14 15 -1 3 5 6 7 -18 0
2 13 14 15 -1 3 5 6 -7 -18 0
2 13 14 15 -1 3 5 -6 7 -18 0
2 13 14 15 -1 3 5 -6 -7 18 0
2 13 14 15 -1 3 -5 6 7 -18 0
2 13 14 15 -1 3 -5 6 -7 18 0
2 13 14 15 -1 3 -5 -6 7 18 0
2 13 14 15 -1 3 -5 -6 -7 -18 0
2 13 14 15 -1 -3 5 6 7 -18 0
2 13 14 15 -1 -3 5 6 -7 18 0
2 13 14 15 -1 -3 5 -6 7 18 0
2 13 14 15 -1 -3 5 -6 -7 -18 0
2 13 14 15 -1 -3 -5 6 7 18 0
2 13 14 15 -1 -3 -5 6 -7 -18 0
2 13 14 15 -1 -3 -5 -6 7 -18 0
2 13 14 15 -1 -3 -5 -6 -7 -18 0
2 13 14 -15 1 3 5 6 7 -18 0
2 13 14 -15 1 3 5 6 -7 -18 0
2 13 14 -15 1 3 5 -6 7 -18 0
2 13 14 -15 1 3 5 -6 -7 18 0
2 13 14 -15 1 3 -5 6 7 -18 0
2 13 14 -15 1 3 -5 6 -7 18 0
2 13 14 -15 1 3 -5 -6 7 18 0
2 13 14 -15 1 3 -5 -6 -7 -18 0
2 13 14 -15 1 -3 5 6 7 -18 0
2 13 14 -15 1 -3 5 6 -7 18 0
2 13 14 -15 1 -3 5 -6 7 18 0
2 13 14 -15 1 -3 5 -6 -7 -18 0
2 13 14 -15 1 -3 -5 6 7 18 0
2 13 14 -15 1 -3 -5 6 -7 -18 0
2 13 14 -15 1 -3 -5 -6 7 -18 0
2 13 14 -15 1 -3 -5 -6 -7 -18 0
2 13 14 -15 -1 3 5 6 7 -18 0
2 13 14 -15 -1 3 5 6 -7 18 0
2 13 14 -15 -1 3 5 -6 7 18 0
2 13 14 -15 -1 3 5 -6 -7 -18 0
2 13 14 -15 -1 3 -5 6 7 18 0
2 13 14 -15 -1 3 -5 6 -7 -18 0
2 13 14 -15 -1 3 -5 -6 7 -18 0
2 13 14 -15 -1 3 -5 -6 -7 -18 0
2 13 14 -15 -1 -3 5 6 7 18 0
2 13 14 -15 -1 -3 5 6 -7 -18 0
2 13 14 -15 -1 -3 5 -6 7 -18 0
2 13 14 -15 -1 -3 5 -6 -7 -18 0
2 13 14 -15 -1 -3 -5 6 7 -18 0
2 13 14 -15 -1 -3 -5 6 -7 -18 0
2 13 14 -15 -1 -3 -5 -6 7 -18 0
2 13 14 -15 -1 -3 -5 -6 -7 -18 0
2 13 -14 15 1 3 5 6 7 -18 0
2 13 -14 15 1 3 5 6 -7 -18 0
2 13 -14 15 1 3 5 -6 7 -18 0
2 13 -14 15 1 3 5 -6 -7 18 0
2 13 -14 15 1 3 -5 6 7 -18 0
2 13 -14 15 1 3 -5 6 -7 18 0
2 13 -14 15 1 3 -5 -6 7 18 0
2 13 -14 15 1 3 -5 -6 -7 -18 0
2 13 -14 15 1 -3 5 6 7 -18 0
2 13 -14 15 1 -3 5 6 -7 18 0
2 13 -14 15 1 -3 5 -6 7 18 0
2 13 -14 15 1 -3 5 -6 -7 -18 0
2 13 -14 15 1 -3 -5 6 7 18 0
2 13 -14 15 1 -3 -5 6 -7 -18 0
2 13 -14 15 1 -3 -5 -6 7 -18 0
2 13 -14 15 1 -3 -5 -6 -7 -18 0
2 13 -14 15 -1 3 5 6 7 -18 0
2 13 -14 15 -1 3 5 6 -7 18 0
2 13 -14 15 -1 3 5 -6 7 18 0
2 13 -14 15 -1 3 5 -6 -7 -18 0
2 13 -14 15 -1 3 -5 6 7 18 0
2 13 -14 15 -1 3 -5 6 -7 -18 0
2 13 -14 15 -1 3 -5 -6 7 -18 0
2 13 -14 15 -1 3 -5 -6 -7 -18 0
2 13 -14 15 -1 -3 5 6 7 18 0
2 13 -14 15 -1 -3 5 6 -7 -18 0
2 13 -14 15 -1 -3 5 -6 7 -18 0
2 13 -14 15 -1 -3 5 -6 -7 -18 0
2 13 -14 15 -1 -3 -5 6 7 -18 0
2 13 -14 15 -1 -3 -5 6 -7 -18 0
2 13 -14 15 -1 -3 -5 -6 7 -18 0
2 13 -14 15 -1 -3 -5 -6 -7 -18 0
2 13 -14 -15 1 3 5 6 7 -18 0
2 13 -14 -15 1 3 5 6 -7 18 0
2 13 -14 -15 1 3 5 -6 7 18 0
2 13 -14 -15 1 3 5 -6 -7 -18 0
2 13 -14 -15 1 3 -5 6 7 18 0
2 13 -14 -15 1 3 -5 6 -7 -18 0
2 13 -14 -15 1 3 -5 -6 7 -18 0
2 13 -14 -15 1 3 -5 -6 -7 -18 0
2 13 -14 -15 1 -3 5 6 7 18 0
2 13 -14 -15 1 -3 5 6 -7 -18 0
2 13 -14 -15 1 -3 5 -6 7 -18 0
2 13 -14 -15 1 -3 5 -6 -7 -18 0
2 13 -14 -15 1 -3 -5 6 7 -18 0
2 13 -14 -15 1 -3 -5 6 -7 -18 0
2 13 -14 -15 1 -3 -5 -6 7 -18 0
2 13 -14 -15 1 -3 -5 -6 -7 -18 0
2 13 -14 -15 -1 3 5 6 7 18 0
2 13 -14 -15 -1 3 5 6 -7 -18 0
2 13 -14 -15 -1 3 5 -6 7 -18 0
2 13 -14 -15 -1 3 5 -6 -7 -18 0
2 13 -14 -15 -1 3 -5 6 7 -18 0
2 13 -14 -15 -1 3 -5 6 -7 -18 0
2 13 -14 -15 -1 3 -5 -6 7 -18 0
2 13 -14 -15 -1 3 -5 -6 -7 -18 0
2 13 -14 -15 -1 -3 5 6 7 -18 0
2 13 -14 -15 -1 -3 5 6 -7 -18 0
2 13 -14 -15 -1 -3 5 -6 7 -18 0
2 13 -14 -15 -1 -3 5 -6 -7 -18 0
2 13 -14 -15 -1 -3 -5 6 7 -18 0
2 13 -14 -15 -1 -3 -5 6 -7 -18 0
2 13 -14 -15 -1 -3 -5 -6 7 -18 0
2 13 -14 -15 -1 -3 -5 -6 -7 -18 0
2 -13 14 15 1 3 5 6 7 -18 0
2 -13 14 15 1 3 5 6 -7 -18 0
2 -13 14 15 1 3 5 -6 7 -18 0
2 -13 14 15 1 3 5 -6 -7 18 0
2 -13 14 15 1 3 -5 6 7 -18 0
2 -13 14 15 1 3 -5 6 -7 18 0
2 -13 14 15 1 3 -5 -6 7 18 0
2 -13 14 15 1 3 -5 -6 -7 -18 0
2 -13 14 15 1 -3 5 6 7 -18 0
2 -13 14 15 1 -3 5 6 -7 18 0
2 -13 14 15 1 -3 5 -6 7 18 0
2 -13 14 15 1 -3 5 -6 -7 -18 0
2 -13 14 15 1 -3 -5 6 7 18 0
2 -13 14 15 1 -3 -5 6 -7 -18 0
2 -13 14 15 1 -3 -5 -6 7 -18 0
2 -13 14 15 1 -3 -5 -6 -7 -18 0
2 -13 14 15 -1 3 5 6 7 -18 0
2 -13 14 15 -1 3 5 6 -7 18 0
2 -13 14 15 -1 3 5 -6 7 18 0
2 -13 14 15 -1 3 5 -6 -7 -18 0
2 -13 14 15 -1 3 -5 6 7 18 0
2 -13 14 15 -1 3 -5 6 -7 -18 0
2 -13 14 15 -1 3 -5 -6 7 -18 0
2 -13 14 15 -1 3 -5 -6 -7 -18 0
2 -13 14 15 -1 -3 5 6 7 18 0
2 -13 14 15 -1 -3 5 6 -7 -18 0
2 -13 14 15 -1 -3 5 -6 7 -18 0
2 -13 14 15 -1 -3 5 -6 -7 -18 0
2 -13 14 15 -1 -3 -5 6 7 -18 0
2 -13 14 15 -1 -3 -5 6 -7 -18 0
2 -13 14 15 -1 -3 -5 -6 7 -18 0
2 -13 14 15 -1 -3 -5 -6 -7 -18 0
2 -13 14 -15 1 3 5 6 7 -18 0
2 -13 14 -15 1 3 5 6 -7 18 0
2 -13 14 -15 1 3 5 -6 7 18 0
2 -13 14 -15 1 3 5 -6 -7 -18 0
2 -13 14 -15 1 3 -5 6 7 18 0
2 -13 14 -15 1 3 -5 6 -7 -18 0
2 -13 14 -15 1 3 -5 -6 7 -18 0
2 -13 14 -15 1 3 -5 -6 -7 -18 0
2 -13 14 -15 1 -3 5 6 7 18 0
2 -13 14 -15 1 -3 5 6 -7 -18 0
2 -13 14 -15 1 -3 5 -6 7 -18 0
2 -13 14 -15 1 -3 5 -6 -7 -18 0
2 -13 14 -15 1 -3 -5 6 7 -18 0
2 -13 14 -15 1 -3 -5 6 -7 -18 0
2 -13 14 -15 1 -3 -5 -6 7 -18 0
2 -13 14 -15 1 -3 -5 -6 -7 -18 0
2 -13 14 -15 -1 3 5 6 7 18 0
2 -13 14 -15 -1 3 5 6 -7 -18 0
2 -13 14 -15 -1 3 5 -6 7 -18 0
2 -13 14 -15 -1 3 5 -6 -7 -18 0
2 -13 14 -15 -1 3 -5 6 7 -18 0
2 -13 14 -15 -1 3 -5 6 -7 -18 0
2 -13 14 -15 -1 3 -5 -6 7 -18 0
2 -13 14 -15 -1 3 -5 -6 -7 -18 0
2 -13 14 -15 -1 -3 5 6 7 -18 0
2 -13 14 -15 -1 -3 5 6 -7 -18 0
2 -13 14 -15 -1 -3 5 -6 7 -18 0
2 -13 14 -15 -1 -3 5 -6 -7 -18 0
2 -13 14 -15 -1 -3 -5 6 7 -18 0
2 -13 14 -15 -1 -3 -5 6 -7 -18 0
2 -13 14 -15 -1 -3 -5 -6 7 -18 0
2 -13 14 -15 -1 -3 -5 -6 -7 -18 0
2 -13 -14 15 1 3 5 6 7 -18 0
2 -13 -14 15 1 3 5 6 -7 18 0
2 -13 -14 15 1 3 5 -6 7 18 0
2 -13 -14 15 1 3 5 -6 -7 -18 0
2 -13 -14 15 1 3 -5 6 7 18 0
2 -13 -14 15 1 3 -5 6 -7 -18 0
2 -13 -14 15 1 3 -5 -6 7 -18 0
2 -13 -14 15 1 3 -5 -6 -7 -18 0
2 -13 -14 15 1 -3 5 6 7 18 0
2 -13 -14 15 1 -3 5 6 -7 -18 0
2 -13 -14 15 1 -3 5 -6 7 -18 0
2 -13 -14 15 1 -3 5 -6 -7 -18 0
2 -13 -14 15 1 -3 -5 6 7 -18 0
2 -13 -14 15 1 -3 -5 6 -7 -18 0
2 -13 -14 15 1 -3 -5 -6 7 -18 0
2 -13 -14 15 1 -3 -5 -6 -7 -18 0
2 -13 -14 15 -1 3 5 6 7 18 0
2 -13 -14 15 -1 3 5 6 -7 -18 0
2 -13 -14 15 -1 3 5 -6 7 -18 0
2 -13 -14 15 -1 3 5 -6 -7 -18 0
2 -13 -14 15 -1 3 -5 6 7 -18 0
2 -13 -14 15 -1 3 -5 6 -7 -18 0
2 -13 -14 15 -1 3 -5 -6 7 -18 0
2 -13 -14 15 -1 3 -5 -6 -7 -18 0
2 -13 -14 15 -1 -3 5 6 7 -18 0
2 -13 -14 15 -1 -3 5 6 -7 -18 0
2 -13 -14 15 -1 -3 5 -6 7 -18 0
2 -13 -14 15 -1 -3 5 -6 -7 -18 0
2 -13 -14 15 -1 -3 -5 6 7 -18 0
2 -13 -14 15 -1 -3 -5 6 -7 -18 0
2 -13 -14 15 -1 -3 -5 -6 7 -18 0
2 -13 -14 15 -1 -3 -5 -6 -7 -18 0
2 -13 -14 -15 1 3 5 6 7 18 0
2 -13 -14 -15 1 3 5 6 -7 -18 0
2 -13 -14 -15 1 3 5 -6 7 -18 0
2 -13 -14 -15 1 3 5 -6 -7 -18 0
2 -13 -14 -15 1 3 -5 6 7 -18 0
2 -13 -14 -15 1 3 -5 6 -7 -18 0
2 -13 -14 -15 1 3 -5 -6 7 -18 0
2 -13 -14 -15 1 3 -5 -6 -7 -18 0
2 -13 -14 -15 1 -3 5 6 7 -18 0
2 -13 -14 -15 1 -3 5 6 -7 -18 0
2 -13 -14 -15 1 -3 5 -6 7 -18 0
2 -13 -14 -15 1 -3 5 -6 -7 -18 0
2 -13 -14 -15 1 -3 -5 6 7 -18 0
2 -13 -14 -15 1 -3 -5 6 -7 -18 0
2 -13 -14 -15 1 -3 -5 -6 7 -18 0
2 -13 -14 -15 1 -3 -5 -6 -7 -18 0
2 -13 -14 -15 -1 3 5 6 7 -18 0
2 -13 -14 -15 -1 3 5 6 -7 -18 0
2 -13 -14 -15 -1 3 5 -6 7 -18 0
2 -13 -14 -15 -1 3 5 -6 -7 -18 0
2 -13 -14 -15 -1 3 -5 6 7 -18 0
2 -13 -14 -15 -1 3 -5 6 -7 -18 0
2 -13 -14 -15 -1 3 -5 -6 7 -18 0
2 -13 -14 -15 -1 3 -5 -6 -7 -18 0
2 -13 -14 -15 -1 -3 5 6 7 -18 0
2 -13 -14 -15 -1 -3 5 6 -7 -18 0
2 -13 -14 -15 -1 -3 5 -6 7 -18 0
2 -13 -14 -15 -1 -3 5 -6 -7 -18 0
2 -13 -14 -15 -1 -3 -5 6 7 -18 0
2 -13 -14 -15 -1 -3 -5 6 -7 -18 0
2 -13 -14 -15 -1 -3 -5 -6 7 -18 0
2 -13 -14 -15 -1 -3 -5 -6 -7 -18 0
-2 13 14 15 1 3 5 6 7 -18 0
-2 13 14 15 1 3 5 6 -7 -18 0
-2 13 14 15 1 3 5 -6 7 -18 0
-2 13 14 15 1 3 5 -6 -7 18 0
-2 13 14 15 1 3 -5 6 7 -18 0
-2 13 14 15 1 3 -5 6 -7 18 0
-2 13 14 15 1 3 -5 -6 7 18 0
-2 13 14 15 1 3 -5 -6 -7 18 0
-2 13 14 15 1 -3 5 6 7 -18 0
-2 13 14 15 1 -3 5 6 -7 18 0
-2 13 14 15 1 -3 5 -6 7 18 0
-2 13 14 15 1 -3 5 -6 -7 18 0
-2 13 14 15 1 -3 -5 6 7 18 0
-2 13 14 15 1 -3 -5 6 -7 18 0
-2 13 14 15 1 -3 -5 -6 7 18 0
-2 13 14 15 1 -3 -5 -6 -7 -18 0
-2 13 14 15 -1 3 5 6 7 -18 0
-2 13 14 15 -1 3 5 6 -7 18 0
-2 13 14 15 -1 3 5 -6 7 18 0
-2 13 14 15 -1 3 5 -6 -7 18 0
-2 13 14 15 -1 3 -5 6 7 18 0
-2 13 14 15 -1 3 -5 6 -7 18 0
-2 13 14 15 -1 3 -5 -6 7 18 0
-2 13 14 15 -1 3 -5 -6 -7 -18 0
-2 13 14 15 -1 -3 5 6 7 18 0
-2 13 14 15 -1 -3 5 6 -7 18 0
-2 13 14 15 -1 -3 5 -6 7 18 0
-2 13 14 15 -1 -3 5 -6 -7 -18 0
-2 13 14 15 -1 -3 -5 6 7 18 0
-2 13 14 15 -1 -3 -5 6 -7 -18 0
-2 13 14 15 -1 -3 -5 -6 7 -18 0
-2 13 14 15 -1 -3 -5 -6 -7 -18 0
-2 13 14 -15 1 3 5 6 7 -18 0
-2 13 14 -15 1 3 5 6 -7 18 0
-2 13 14 -15 1 3 5 -6 7 18 0
-2 13 14 -15 1 3 5 -6 -7 18 0
-2 13 14 -15 1 3 -5 6 7 18 0
-2 13 14 -15 1 3 -5 6 -7 18 0
-2 13 14 -15 1 3 -5 -6 7 18 0
-2 13 14 -15 1 3 -5 -6 -7 -18 0
-2 13 14 -15 1 -3 5 6 7 18 0
-2 13 14 -15 1 -3 5 6 -7 18 0
-2 13 14 -15 1 -3 5 -6 7 18 0
-2 13 14 -15 1 -3 5 -6 -7 -18 0
-2 13 14 -15 1 -3 -5 6 7 18 0
-2 13 14 -15 1 -3 -5 6 -7 -18 0
-2 13 14 -15 1 -3 -5 -6 7 -18 0
-2 13 14 -15 1 -3 -5 -6 -7 -18 0
-2 13 14 -15 -1 3 5 6 7 18 0
-2 13 14 -15 -1 3 5 6 -7 18 0
-2 13 14 -15 -1 3 5 -6 7 18 0
-2 13 14 -15 -1 3 5 -6 -7 -18 0
-2 13 14 -15 -1 3 -5 6 7 18 0
-2 13 14 -15 -1 3 -5 6 -7 -18 0
-2 13 14 -15 -1 3 -5 -6 7 -18 0
-2 13 14 -15 -1 3 -5 -6 -7 -18 0
-2 13 14 -15 -1 -3 5 6 7 18 0
-2 13 14 -15 -1 -3 5 6 -7 -18 0
-2 13 14 -15 -1 -3 5 -6 7 -18 0
-2 13 14 -15 -1 -3 5 -6 -7 -18 0
-2 13 14 -15 -1 -3 -5 6 7 -18 0
-2 13 14 -15 -1 -3 -5 6 -7 -18 0
-2 13 14 -15 -1 -3 -5 -6 7 -18 0
-2 13 14 -15 -1 -3 -5 -6 -7 -18 0
-2 13 -14 15 1 3 5 6 7 -18 0
-2 13 -14 15 1 3 5 6 -7 18 0
-2 13 -14 15 1 3 5 -6 7 18 0
-2 13 -14 15 1 3 5 -6 -7 18 0
-2 13 -14 15 1 3 -5 6 7 18 0
-2 13 -14 15 1 3 -5 6 -7 18 0
-2 13 -14 15 1 3 -5 -6 7 18 0
-2 13 -14 15 1 3 -5 -6 -7 -18 0
-2 13 -14 15 1 -3 5 6 7 18 0
-2 13 -14 15 1 -3 5 6 -7 18 0
-2 13 -14 15 1 -3 5 -6 7 18 0
-2 13 -14 15 1 -3 5 -6 -7 -18 0
-2 13 -14 15 1 -3 -5 6 7 18 0
-2 13 -14 15 1 -3 -5 6 -7 -18 0
-2 13 -14 15 1 -3 -5 -6 7 -18 0
-2 13 -14 15 1 -3 -5 -6 -7 -18 0
-2 13 -14 15 -1 3 5 6 7 18 0
-2 13 -14 15 -1 3 5 6 -7 18 0
-2 13 -14 15 -1 3 5 -6 7 18 0
-2 13 -14 15 -1 3 5 -6 -7 -18 0
-2 13 -14 15 -1 3 -5 6 7 18 0
-2 13 -14 15 -1 3 -5 6 -7 -18 0
-2 13 -14 15 -1 3 -5 -6 7 -18 0
-2 13 -14 15 -1 3 -5 -6 -7 -18 0
-2 13 -14 15 -1 -3 5 6 7 18 0
-2 13 -14 15 -1 -3 5 6 -7 -18 0
-2 13 -14 15 -1 -3 5 -6 7 -18 0
-2 13 -14 15 -1 -3 5 -6 -7 -18 0
-2 13 -14 15 -1 -3 -5 6 7 -18 0
-2 13 -14 15 -1 -3 -5 6 -7 -18 0
-2 13 -14 15 -1 -3 -5 -6 7 -18 0
-2 13 -14 15 -1 -3 -5 -6 -7 -18 0
-2 13 -14 -15 1 3 5 6 7 18 0
-2 13 -14 -15 1 3 5 6 -7 18 0
-2 13 -14 -15 1 3 5 -6 7 18 0
-2 13 -14 -15 1 3 5 -6 -7 -18 0
-2 13 -14 -15 1 3 -5 6 7 18 0
-2 13 -14 -15 1 3 -5 6 -7 -18 0
-2 13 -14 -15 1 3 -5 -6 7 -18 0
-2 13 -14 -15 1 3 -5 -6 -7 -18 0
-2 13 -14 -15 1 -3 5 6 7 18 0
-2 13 -14 -15 1 -3 5 6 -7 -18 0
-2 13 -14 -15 1 -3 5 -6 7 -18 0
-2 13 -14 -15 1 -3 5 -6 -7 -18 0
-2 13 -14 -15 1 -3 -5 6 7 -18 0
-2 13 -14 -15 1 -3 -5 6 -7 -18 0
-2 13 -14 -15 1 -3 -5 -6 7 -18 0
-2 13 -14 -15 1 -3 -5 -6 -7 -18 0
-2 13 -14 -15 -1 3 5 6 7 18 0
-2 13 -14 -15 -1 3 5 6 -7 -18 0
-2 13 -14 -15 -1 3 5 -6 7 -18 0
-2 13 -14 -15 -1 3 5 -6 -7 -18 0
-2 13 -14 -15 -1 3 -5 6 7 -18 0
-2 13 -14 -15 -1 3 -5 6 -7 -18 0
-2 13 -14 -15 -1 3 -5 -6 7 -18 0
-2 13 -14 -15 -1 3 -5 -6 -7 -18 0
-2 13 -14 -15 -1 -3 5 6 7 -18 0
-2 13 -14 -15 -1 -3 5 6 -7 -18 0
-2 13 -14 -15 -1 -3 5 -6 7 -18 0
-2 13 -14 -15 -1 -3 5 -6 -7 -18 0
-2 13 -14 -15 -1 -3 -5 6 7 -18 0
-2 13 -14 -15 -1 -3 -5 6 -7 -18 0
-2 13 -14 -15 -1 -3 -5 -6 7 -18 0
-2 13 -14 -15 -1 -3 -5 -6 -7 -18 0
-2 -13 14 15 1 3 5 6 7 -18 0
-2 -13 14 15 1 3 5 6 -7 18 0
-2 -13 14 15 1 3 5 -6 7 18 0
-2 -13 14 15 1 3 5 -6 -7 18 0
-2 -13 14 15 1 3 -5 6 7 18 0
-2 -13 14 15 1 3 -5 6 -7 18 0
-2 -13 14 15 1 3 -5 -6 7 18 0
-2 -13 14 15 1 3 -5 -6 -7 -18 0
-2 -13 14 15 1 -3 5 6 7 18 0
-2 -13 14 15 1 -3 5 6 -7 18 0
-2 -13 14 15 1 -3 5 -6 7 18 0
-2 -13 14 15 1 -3 5 -6 -7 -18 0
-2 -13 14 15 1 -3 -5 6 7 18 0
-2 -13 14 15 1 -3 -5 6 -7 -18 0
-2 -13 14 15 1 -3 -5 -6 7 -18 0
-2 -13 14 15 1 -3 -5 -6 -7 -18 0
-2 -13 14 15 -1 3 5 6 7 18 0
-2 -13 14 15 -1 3 5 6 -7 18 0
-2 -13 14 15 -1 3 5 -6 7 18 0
-2 -13 14 15 -1 3 5 -6 -7 -18 0
-2 -13 14 15 -1 3 -5 6 7 18 0
-2 -13 14 15 -1 3 -5 6 -7 -18 0
-2 -13 14 15 -1 3 -5 -6 7 -18 0
-2 -13 14 15 -1 3 -5 -6 -7 -18 0
-2 -13 14 15 -1 -3 5 6 7 18 0
-2 -13 14 15 -1 -3 5 6 -7 -18 0
-2 -13 14 15 -1 -3 5 -6 7 -18 0
-2 -13 14 15 -1 -3 5 -6 -7 -18 0
-2 -13 14 15 -1 -3 -5 6 7 -18 0
-2 -13 14 15 -1 -3 -5 6 -7 -18 0
-2 -13 14 15 -1 -3 -5 -6 7 -18 0
-2 -13 14 15 -1 -3 -5 -6 -7 -18 0
-2 -13 14 -15 1 3 5 6 7 18 0
-2 -13 14 -15 1 3 5 6 -7 18 0
-2 -13 14 -15 1 3 5 -6 7 18 0
-2 -13 14 -15 1 3 5 -6 -7 -18 0
-2 -13 14 -15 1 3 -5 6 7 18 0
-2 -13 14 -15 1 3 -5 6 -7 -18 0
-2 -13 14 -15 1 3 -5 -6 7 -18 0
-2 -13 14 -15 1 3 -5 -6 -7 -18 0
-2 -13 14 -15 1 -3 5 6 7 18 0
-2 -13 14 -15 1 -3 5 6 -7 -18 0
-2 -13 14 -15 1 -3 5 -6 7 -18 0
-2 -13 14 -15 1 -3 5 -6 -7 -18 0
-2 -13 14 -15 1 -3 -5 6 7 -18 0
-2 -13 14 -15 1 -3 -5 6 -7 -18 0
-2 -13 14 -15 1 -3 -5 -6 7 -18 0
-2 -13 14 -15 1 -3 -5 -6 -7 -18 0
-2 -13 14 -15 -1 3 5 6 7 18 0
-2 -13 14 -15 -1 3 5 6 -7 -18 0
-2 -13 14 -15 -1 3 5 -6 7 -18 0
-2 -13 14 -15 -1 3 5 -6 -7 -18 0
-2 -13 14 -15 -1 3 -5 6 7 -18 0
-2 -13 14 -15 -1 3 -5 6 -7 -18 0
-2 -13 14 -15 -1 3 -5 -6 7 -18 0
-2 -13 14 -15 -1 3 -5 -6 -7 -18 0
-2 -13 14 -15 -1 -3 5 6 7 -18 0
-2 -13 14 -15 -1 -3 5 6 -7 -18 0
-2 -13 14 -15 -1 -3 5 -6 7 -18 0
-2 -13 14 -15 -1 -3 5 -6 -7 -18 0
-2 -13 14 -15 -1 -3 -5 6 7 -18 0
-2 -13 14 -15 -1 -3 -5 6 -7 -18 0
-2 -13 14 -15 -1 -3 -5 -6 7 -18 0
-2 -13 14 -15 -1 -3 -5 -6 -7 -18 0
-2 -13 -14 15 1 3 5 6 7 18 0
-2 -13 -14 15 1 3 5 6 -7 18 0
-2 -13 -14 15 1 3 5 -6 7 18 0
-2 -13 -14 15 1 3 5 -6 -7 -18 0
-2 -13 -14 15 1 3 -5 6 7 18 0
-2 -13 -14 15 1 3 -5 6 -7 -18 0
-2 -13 -14 15 1 3 -5 -6 7 -18 0
-2 -13 -14 15 1 3 -5 -6 -7 -18 0
-2 -13 -14 15 1 -3 5 6 7 18 0
-2 -13 -14 15 1 -3 5 6 -7 -18 0
-2 -13 -14 15 1 -3 5 -6 7 -18 0
-2 -13 -14 15 1 -3 5 -6 -7 -18 0
-2 -13 -14 15 1 -3 -5 6 7 -18 0
-2 -13 -14 15 1 -3 -5 6 -7 -18 0
-2 -13 -14 15 1 -3 -5 -6 7 -18 0
-2 -13 -14 15 1 -3 -5 -6 -7 -18 0
-2 -13 -14 15 -1 3 5 6 7 18 0
-2 -13 -14 15 -1 3 5 6 -7 -18 0
-2 -13 -14 15 -1 3 5 -6 7 -18 0
-2 -13 -14 15 -1 3 5 -6 -7 -18 0
-2 -13 -14 15 -1 3 -5 6 7 -18 0
-2 -13 -14 15 -1 3 -5 6 -7 -18 0
-2 -13 -14 15 -1 3 -5 -6 7 -18 0
-2 -13 -14 15 -1 3 -5 -6 -7 -18 0
-2 -13 -14 15 -1 -3 5 6 7 -18 0
-2 -13 -14 15 -1 -3 5 6 -7 -18 0
-2 -13 -14 15 -1 -3 5 -6 7 -18 0
-2 -13 -14 15 -1 -3 5 -6 -7 -18 0
-2 -13 -14 15 -1 -3 -5 6 7 -18 0
-2 -13 -14 15 -1 -3 -5 6 -7 -18 0
-2 -13 -14 15 -1 -3 -5 -6 7 -18 0
-2 -13 -14 15 -1 -3 -5 -6 -7 -18 0
-2 -13 -14 -15 1 3 5 6 7 18 0
-2 -13 -14 -15 1 3 5 6 -7 -18 0
-2 -13 -14 -15 1 3 5 -6 7 -18 0
-2 -13 -14 -15 1 3 5 -6 -7 -18 0
-2 -13 -14 -15 1 3 -5 6 7 -18 0
-2 -13 -14 -15 1 3 -5 6 -7 -18 0
-2 -13 -14 -15 1 3 -5 -6 7 -18 0
-2 -13 -14 -15 1 3 -5 -6 -7 -18 0
-2 -13 -14 -15 1 -3 5 6 7 -18 0
-2 -13 -14 -15 1 -3 5 6 -7 -18 0
-2 -13 -14 -15 1 -3 5 -6 7 -18 0
-2 -13 -14 -15 1 -3 5 -6 -7 -18 0
-2 -13 -14 -15 1 -3 -5 6 7 -18 0
-2 -13 -14 -15 1 -3 -5 6 -7 -18 0
-2 -13 -14 -15 1 -3 -5 -6 7 -18 0
-2 -13 -14 -15 1 -3 -5 -6 -7 -18 0
-2 -13 -14 -15 -1 3 5 6 7 -18 0
-2 -13 -14 -15 -1 3 5 6 -7 -18 0
-2 -13 -14 -15 -1 3 5 -6 7 -18 0
-2 -13 -14 -15 -1 3 5 -6 -7 -18 0
-2 -13 -14 -15 -1 3 -5 6 7 -18 0
-2 -13 -14 -15 -1 3 -5 6 -7 -18 0
-2 -13 -14 -15 -1 3 -5 -6 7 -18 0
-2 -13 -14 -15 -1 3 -5 -6 -7 -18 0
-2 -13 -14 -15 -1 -3 5 6 7 -18 0
-2 -13 -14 -15 -1 -3 5 6 -7 -18 0
-2 -13 -14 -15 -1 -3 5 -6 7 -18 0
-2 -13 -14 -15 -1 -3 5 -6 -7 -18 0
-2 -13 -14 -15 -1 -3 -5 6 7 -18 0
-2 -13 -14 -15 -1 -3 -5 6 -7 -18 0
-2 -13 -14 -15 -1 -3 -5 -6 7 -18 0
-2 -13 -14 -15 -1 -3 -5 -6 -7 -18 0
3 14 15 16 2 4 6 7 8 -19 0
3 14 15 16 2 4 6 7 -8 -19 0
3 14 15 16 2 4 6 -7 8 -19 0
3 14 15 16 2 4 6 -7 -8 -19 0
3 14 15 16 2 4 -6 7 8 -19 0
3 14 15 16 2 4 -6 7 -8 -19 0
3 14 15 16 2 4 -6 -7 8 -19 0
3 14 15 16 2 4 -6 -7 -8 19 0
3 14 15 16 2 -4 6 7 8 -19 0
3 14 15 16 2 -4 6 7 -8 -19 0
3 14 15 16 2 -4 6 -7 8 -19 0
3 14 15 16 2 -4 6 -7 -8 19 0
3 14 15 16 2 -4 -6 7 8 -19 0
3 14 15 16 2 -4 -6 7 -8 19 0
3 14 15 16 2 -4 -6 -7 8 19 0
3 14 15 16 2 -4 -6 -7 -8 -19 0
3 14 15 16 -2 4 6 7 8 -19 0
3 14 15 16 -2 4 6 7 -8 -19 0
3 14 15 16 -2 4 6 -7 8 -19 0
3 14 15 16 -2 4 6 -7 -8 19 0
3 14 15 16 -2 4 -6 7 8 -19 0
3 14 15 16 -2 4 -6 7 -8 19 0
3 14 15 16 -2 4 -6 -7 8 19 0
3 14 15 16 -2 4 -6 -7 -8 -19 0
3 14 15 16 -2 -4 6 7 8 -19 0
3 14 15 16 -2 -4 6 7 -8 19 0
3 14 15 16 -2 -4 6 -7 8 19 0
3 14 15 16 -2 -4 6 -7 -8 -19 0
3 14 15 16 -2 -4 -6 7 8 19 0
3 14 15 16 -2 -4 -6 7 -8 -19 0
3 14 15 16 -2 -4 -6 -7 8 -19 0
3 14 15 16 -2 -4 -6 -7 -8 -19 0
3 14 15 -16 2 4 6 7 8 -19 0
3 14 15 -16 2 4 6 7 -8 -19 0
3 14 15 -16 2 4 6 -7 8 -19 0
3 14 15 -16 2 4 6 -7 -8 19 0
3 14 15 -16 2 4 -6 7 8 -19 0
3 14 15 -16 2 4 -6 7 -8 19 0
3 14 15 -16 2 4 -6 -7 8 19 0
3 14 15 -16 2 4 -6 -7 -8 -19 0
3 14 15 -16 2 -4 6 7 8 -19 0
3 14 15 -16 2 -4 6 7 -8 19 0
3 14 15 -16 2 -4 6 -7 8 19 0
3 14 15 -16 2 -4 6 -7 -8 -19 0
3 14 15 -16 2 -4 -6 7 8 19 0
3 14 15 -16 2 -4 -6 7 -8 -19 0
3 14 15 -16 2 -4 -6 -7 8 -19 0
3 14 15 -16 2 -4 -6 -7 -8 -19 0
3 14 15 -16 -2 4 6 7 8 -19 0
3 14 15 -16 -2 4 6 7 -8 19 0
3 14 15 -16 -2 4 6 -7 8 19 0
3 14 15 -16 -2 4 6 -7 -8 -19 0
3 14 15 -16 -2 4 -6 7 8 19 0
3 14 15 -16 -2 4 -6 7 -8 -19 0
3 14 15 -16 -2 4 -6 -7 8 -19 0
3 14 15 -16 -2 4 -6 -7 -8 -19 0
3 14 15 -16 -2 -4 6 7 8 19 0
3 14 15 -16 -2 -4 6 7 -8 -19 0
3 14 15 -16 -2 -4 6 -7 8 -19 0
3 14 15 -16 -2 -4 6 -7 -8 -19 0
3 14 15 -16 -2 -4 -6 7 8 -19 0
3 14 15 -16 -2 -4 -6 7 -8 -19 0
3 14 15 -16 -2 -4 -6 -7 8 -19 0
3 14 15 -16 -2 -4 -6 -7 -8 -19 0
3 14 -15 16 2 4 6 7 8 -19 0
3 14 -15 16 2 4 6 7 -8 -19 0
3 14 -15 16 2 4 6 -7 8 -19 0
3 14 -15 16 2 4 6 -7 -8 19 0
3 14 -15 16 2 4 -6 7 8 -19 0
3 14 -15 16 2 4 -6 7 -8 19 0
3 14 -15 16 2 4 -6 -7 8 19 0
3 14 -15 16 2 4 -6 -7 -8 -19 0
3 14 -15 16 2 -4 6 7 8 -19 0
3 14 -15 16 2 -4 6 7 -8 19 0
3 14 -15 16 2 -4 6 -7 8 19 0
3 14 -15 16 2 -4 6 -7 -8 -19 0
3 14 -15 16 2 -4 -6 7 8 19 0
3 14 -15 16 2 -4 -6 7 -8 -19 0
3 14 -15 16 2 -4 -6 -7 8 -19 0
3 14 -15 16 2 -4 -6 -7 -8 -19 0
3 14 -15 16 -2 4 6 7 8 -19 0
3 14 -15 16 -2 4 6 7 -8 19 0
3 14 -15 16 -2 4 6 -7 8 19 0
3 14 -15 16 -2 4 6 -7 -8 -19 0
3 14 -15 16 -2 4 -6 7 8 19 0
3 14 -15 16 -2 4 -6 7 -8 -19 0
3 14 -15 16 -2 4 -6 -7 8 -19 0
3 14 -15 16 -2 4 -6 -7 -8 -19 0
3 14 -15 16 -2 -4 6 7 8 19 0
3 14 -15 16 -2 -4 6 7 -8 -19 0
3 14 -15 16 -2 -4 6 -7 8 -19 0
3 14 -15 16 -2 -4 6 -7 -8 -19 0
3 14 -15 16 -2 -4 -6 7 8 -19 0
3 14 -15 16 -2 -4 -6 7 -8 -19 0
3 14 -15 16 -2 -4 -6 -7 8 -19 0
3 14 -15 16 -2 -4 -6 -7 -8 -19 0
3 14 -15 -16 2 4 6 7 8 -19 0
3 14 -15 -16 2 4 6 7 -8 19 0
3 14 -15 -16 2 4 6 -7 8 19 0
3 14 -15 -16 2 4 6 -7 -8 -19 0
3 14 -15 -16 2 4 -6 7 8 19 0
3 14 -15 -16 2 4 -6 7 -8 -19 0
3 14 -15 -16 2 4 -6 -7 8 -19 0
3 14 -15 -16 2 4 -6 -7 -8 -19 0
3 14 -15 -16 2 -4 6 7 8 19 0
3 14 -15 -16 2 -4 6 7 -8 -19 0
3 14 -15 -16 2 -4 6 -7 8 -19 0
3 14 -15 -16 2 -4 6 -7 -8 -19 0
3 14 -15 -16 2 -4 -6 7 8 -19 0
3 14 -15 -16 2 -4 -6 7 -8 -19 0
3 14 -15 -16 2 -4 -6 -7 8 -19 0
3 14 -15 -16 2 -4 -6 -7 -8 -19 0
3 14 -15 -16 -2 4 6 7 8 19 0
3 14 -15 -16 -2 4 6 7 -8 -19 0
3 14 -15 -16 -2 4 6 -7 8 -19 0
3 14 -15 -16 -2 4 6 -7 -8 -19 0
3 14 -15 -16 -2 4 -6 7 8 -19 0
3 14 -15 -16 -2 4 -6 7 -8 -19 0
3 14 -15 -16 -2 4 -6 -7 8 -19 0
3 14 -15 -16 -2 4 -6 -7 -8 -19 0
3 14 -15 -16 -2 -4 6 7 8 -19 0
3 14 -15 -16 -2 -4 6 7 -8 -19 0
3 14 -15 -16 -2 -4 6 -7 8 -19 0
3 14 -15 -16 -2 -4 6 -7 -8 -19 0
3 14 -15 -16 -2 -4 -6 7 8 -19 0
3 14 -15 -16 -2 -4 -6 7 -8 -19 0
3 14 -15 -16 -2 -4 -6 -7 8 -19 0
3 14 -15 -16 -2 -4 -6 -7 -8 -19 0
3 -14 15 16 2 4 6 7 8 -19 0
3 -14 15 16 2 4 6 7 -8 -19 0
3 -14 15 16 2 4 6 -7 8 -19 0
3 -14 15 16 2 4 6 -7 -8 19 0
3 -14 15 16 2 4 -6 7 8 -19 0
3 -14 15 16 2 4 -6 7 -8 19 0
3 -14 15 16 2 4 -6 -7 8 19 0
3 -14 15 16 2 4 -6 -7 -8 -19 0
3 -14 15 16 2 -4 6 7 8 -19 0
3 -14 15 16 2 -4 6 7 -8 19 0
3 -14 15 16 2 -4 6 -7 8 19 0
3 -14 15 16 2 -4 6 -7 -8 -19 0
3 -14 15 16 2 -4 -6 7 8 19 0
3 -14 15 16 2 -4 -6 7 -8 -19 0
3 -14 15 16 2 -4 -6 -7 8 -19 0
3 -14 15 16 2 -4 -6 -7 -8 -19 0
3 -14 15 16 -2 4 6 7 8 -19 0
3 -14 15 16 -2 4 6 7 -8 19 0
3 -14 15 16 -2 4 6 -7 8 19 0
3 -14 15 16 -2 4 6 -7 -8 -19 0
3 -14 15 16 -2 4 -6 7 8 19 0
3 -14 15 16 -2 4 -6 7 -8 -19 0
3 -14 15 16 -2 4 -6 -7 8 -19 0
3 -14 15 16 -2 4 -6 -7 -8 -19 0
3 -14 15 16 -2 -4 6 7 8 19 0
3 -14 15 16 -2 -4 6 7 -8 -19 0
3 -14 15 16 -2 -4 6 -7 8 -19 0
3 -14 15 16 -2 -4 6 -7 -8 -19 0
3 -14 15 16 -2 -4 -6 7 8 -19 0
3 -14 15 16 -2 -4 -6 7 -8 -19 0
3 -14 15 16 -2 -4 -6 -7 8 -19 0
3 -14 15 16 -2 -4 -6 -7 -8 -19 0
3 -14 15 -16 2 4 6 7 8 -19 0
3 -14 15 -16 2 4 6 7 -8 19 0
3 -14 15 -16 2 4 6 -7 8 19 0
3 -14 15 -16 2 4 6 -7 -8 -19 0
3 -14 15 -16 2 4 -6 7 8 19 0
3 -14 15 -16 2 4 -6 7 -8 -19 0
3 -14 15 -16 2 4 -6 -7 8 -19 0
3 -14 15 -16 2 4 -6 -7 -8 -19 0
3 -14 15 -16 2 -4 6 7 8 19 0
3 -14 15 -16 2 -4 6 7 -8 -19 0
3 -14 15 -16 2 -4 6 -7 8 -19 0
3 -14 15 -16 2 -4 6 -7 -8 -19 0
3 -14 15 -16 2 -4 -6 7 8 -19 0
3 -14 15 -16 2 -4 -6 7 -8 -19 0
3 -14 15 -16 2 -4 -6 -7 8 -19 0
3 -14 15 -16 2 -4 -6 -7 -8 -19 0
3 -14 15 -16 -2 4 6 7 8 19 0
3 -14 15 -16 -2 4 6 7 -8 -19 0
3 -14 15 -16 -2 4 6 -7 8 -19 0
3 -14 15 -16 -2 4 6 -7 -8 -19 0
3 -14 15 -16 -2 4 -6 7 8 -19 0
3 -14 15 -16 -2 4 -6 7 -8 -19 0
3 -14 15 -16 -2 4 -6 -7 8 -19 0
3 -14 15 -16 -2 4 -6 -7 -8 -19 0
3 -14 15 -16 -2 -4 6 7 8 -19 0
3 -14 15 -16 -2 -4 6 7 -8 -19 0
3 -14 15 -16 -2 -4 6 -7 8 -19 0
3 -14 15 -16 -2 -4 6 -7 -8 -19 0
3 -14 15 -16 -2 -4 -6 7 8 -19 0
3 -14 15 -16 -2 -4 -6 7 -8 -19 0
3 -14 15 -16 -2 -4 -6 -7 8 -19 0
3 -14 15 -16 -2 -4 -6 -7 -8 -19 0
3 -14 -15 16 2 4 6 7 8 -19 0
3 -14 -15 16 2 4 6 7 -8 19 0
3 -14 -15 16 2 4 6 -7 8 19 0
3 -14 -15 16 2 4 6 -7 -8 -19 0
3 -14 -15 16 2 4 -6 7 8 19 0
3 -14 -15 16 2 4 -6 7 -8 -19 0
3 -14 -15 16 2 4 -6 -7 8 -19 0
3 -14 -15 16 2 4 -6 -7 -8 -19 0
3 -14 -15 16 2 -4 6 7 8 19 0
3 -14 -15 16 2 -4 6 7 -8 -19 0
3 -14 -15 16 2 -4 6 -7 8 -19 0
3 -14 -15 16 2 -4 6 -7 -8 -19 0
3 -14 -15 16 2 -4 -6 7 8 -19 0
3 -14 -15 16 2 -4 -6 7 -8 -19 0
3 -14 -15 16 2 -4 -6 -7 8 -19 0
3 -14 -15 16 2 -4 -6 -7 -8 -19 0
3 -14 -15 16 -2 4 6 7 8 19 0
3 -14 -15 16 -2 4 6 7 -8 -19 0
3 -14 -15 16 -2 4 6 -7 8 -19 0
3 -14 -15 16 -2 4 6 -7 -8 -19 0
3 -14 -15 16 -2 4 -6 7 8 -19 0
3 -14 -15 16 -2 4 -6 7 -8 -19 0
3 -14 -15 16 -2 4 -6 -7 8 -19 0
3 -14 -15 16 -2 4 -6 -7 -8 -19 0
3 -14 -15 16 -2 -4 6 7 8 -19 0
3 -14 -15 16 -2 -4 6 7 -8 -19 0
3 -14 -15 16 -2 -4 6 -7 8 -19 0
3 -14 -15 16 -2 -4 6 -7 -8 -19 0
3 -14 -15 16 -2 -4 -6 7 8 -19 0
3 -14 -15 16 -2 -4 -6 7 -8 -19 0
3 -14 -15 16 -2 -4 -6 -7 8 -19 0
3 -14 -15 16 -2 -4 -6 -7 -8 -19 0
3 -14 -15 -16 2 4 6 7 8 19 0
3 -14 -15 -16 2 4 6 7 -8 -19 0
3 -14 -15 -16 2 4 6 -7 8 -19 0
3 -14 -15 -16 2 4 6 -7 -8 -19 0
3 -14 -15 -16 2 4 -6 7 8 -19 0
3 -14 -15 -16 2 4 -6 7 -8 -19 0
3 -14 -15 -16 2 4 -6 -7 8 -19 0
3 -14 -15 -16 2 4 -6 -7 -8 -19 0
3 -14 -15 -16 2 -4 6 7 8 -19 0
3 -14 -15 -16 2 -4 6 7 -8 -19 0
3 -14 -15 -16 2 -4 6 -7 8 -19 0
3 -14 -15 -16 2 -4 6 -7 -8 -19 0
3 -14 -15 -16 2 -4 -6 7 8 -19 0
3 -14 -15 -16 2 -4 -6 7 -8 -19 0
3 -14 -15 -16 2 -4 -6 -7 8 -19 0
3 -14 -15 -16 2 -4 -6 -7 -8 -19 0
3 -14 -15 -16 -2 4 6 7 8 -19 0
3 -14 -15 -16 -2 4 6 7 -8 -19 0
3 -14 -15 -16 -2 4 6 -7 8 -19 0
3 -14 -15 -16 -2 4 6 -7 -8 -19 0
3 -14 -15 -16 -2 4 -6 7 8 -19 0
3 -14 -15 -16 -2 4 -6 7 -8 -19 0
3 -14 -15 -16 -2 4 -6 -7 8 -19 0
3 -14 -15 -16 -2 4 -6 -7 -8 -19 0
3 -14 -15 -16 -2 -4 6 7 8 -19 0
3 -14 -15 -16 -2 -4 6 7 -8 -19 0
3 -14 -15 -16 -2 -4 6 -7 8 -19 0
3 -14 -15 -16 -2 -4 6 -7 -8 -19 0
3 -14 -15 -16 -2 -4 -6 7 8 -19 0
3 -14 -15 -16 -2 -4 -6 7 -8 -19 0
3 -14 -15 -16 -2 -4 -6 -7 8 -19 0
3 -14 -15 -16 -2 -4 -6 -7 -8 -19 0
-3 14 15 16 2 4 6 7 8 -19 0
-3 14 15 16 2 4 6 7 -8 -19 0
-3 14 15 16 2 4 6 -7 8 -19 0
-3 14 15 16 2 4 6 -7 -8 19 0
-3 14 15 16 2 4 -6 7 8 -19 0
-3 14 15 16 2 4 -6 7 -8 19 0
-3 14 15 16 2 4 -6 -7 8 19 0
-3 14 15 16 2 4 -6 -7 -8 19 0
-3 14 15 16 2 -4 6 7 8 -19 0
-3 14 15 16 2 -4 6 7 -8 19 0
-3 14 15 16 2 -4 6 -7 8 19 0
-3 14 15 16 2 -4 6 -7 -8 19 0
-3 14 15 16 2 -4 -6 7 8 19 0
-3 14 15 16 2 -4 -6 7 -8 19 0
-3 14 15 16 2 -4 -6 -7 8 19 0
-3 14 15 16 2 -4 -6 -7 -8 -19 0
-3 14 15 16 -2 4 6 7 8 -19 0
-3 14 15 16 -2 4 6 7 -8 19 0
-3 14 15 16 -2 4 6 -7 8 19 0
-3 14 15 16 -2 4 6 -7 -8 19 0
-3 14 15 16 -2 4 -6 7 8 19 0
-3 14 15 16 -2 4 -6 7 -8 19 0
-3 14 15 16 -2 4 -6 -7 8 19 0
-3 14 15 16 -2 4 -6 -7 -8 -19 0
-3 14 15 16 -2 -4 6 7 8 19 0
-3 14 15 16 -2 -4 6 7 -8 19 0
-3 14 15 16 -2 -4 6 -7 8 19 0
-3 14 15 16 -2 -4 6 -7 -8 -19 0
-3 14 15 16 -2 -4 -6 7 8 19 0
-3 14 15 16 -2 -4 -6 7 -8 -19 0
-3 14 15 16 -2 -4 -6 -7 8 -19 0
-3 14 15 16 -2 -4 -6 -7 -8 -19 0
-3 14 15 -16 2 4 6 7 8 -19 0
-3 14 15 -16 2 4 6 7 -8 19 0
-3 14 15 -16 2 4 6 -7 8 19 0
-3 14 15 -16 2 4 6 -7 -8 19 0
-3 14 15 -16 2 4 -6 7 8 19 0
-3 14 15 -16 2 4 -6 7 -8 19 0
-3 14 15 -16 2 4 -6 -7 8 19 0
-3 14 15 -16 2 4 -6 -7 -8 -19 0
-3 14 15 -16 2 -4 6 7 8 19 0
-3 14 15 -16 2 -4 6 7 -8 19 0
-3 14 15 -16 2 -4 6 -7 8 19 0
-3 14 15 -16 2 -4 6 -7 -8 -19 0
-3 14 15 -16 2 -4 -6 7 8 19 0
-3 14 15 -16 2 -4 -6 7 -8 -19 0
-3 14 15 -16 2 -4 -6 -7 8 -19 0
-3 14 15 -16 2 -4 -6 -7 -8 -19 0
-3 14 15 -16 -2 4 6 7 8 19 0
-3 14 15 -16 -2 4 6 7 -8 19 0
-3 14 15 -16 -2 4 6 -7 8 19 0
-3 14 15 -16 -2 4 6 -7 -8 -19 0
-3 14 15 -16 -2 4 -6 7 8 19 0
-3 14 15 -16 -2 4 -6 7 -8 -19 0
-3 14 15 -16 -2 4 -6 -7 8 -19 0
-3 14 15 -16 -2 4 -6 -7 -8 -19 0
-3 14 15 -16 -2 -4 6 7 8 19 0
-3 14 15 -16 -2 -4 6 7 -8 -19 0
-3 14 15 -16 -2 -4 6 -7 8 -19 0
-3 14 15 -16 -2 -4 6 -7 -8 -19 0
-3 14 15 -16 -2 -4 -6 7 8 -19 0
-3 14 15 -16 -2 -4 -6 7 -8 -19 0
-3 14 15 -16 -2 -4 -6 -7 8 -19 0
-3 14 15 -16 -2 -4 -6 -7 -8 -19 0
-3 14 -15 16 2 4 6 7 8 -19 0
-3 14 -15 16 2 4 6 7 -8 19 0
-3 14 -15 16 2 4 6 -7 8 19 0
-3 14 -15 16 2 4 6 -7 -8 19 0
-3 14 -15 16 2 4 -6 7 8 19 0
-3 14 -15 16 2 4 -6 7 -8 19 0
-3 14 -15 16 2 4 -6 -7 8 19 0
-3 14 -15 16 2 4 -6 -7 -8 -19 0
-3 14 -15 16 2 -4 6 7 8 19 0
-3 14 -15 16 2 -4 6 7 -8 19 0
-3 14 -15 16 2 -4 6 -7 8 19 0
-3 14 -15 16 2 -4 6 -7 -8 -19 0
-3 14 -15 16 2 -4 -6 7 8 19 0
-3 14 -15 16 2 -4 -6 7 -8 -19 0
-3 14 -15 16 2 -4 -6 -7 8 -19 0
-3 14 -15 16 2 -4 -6 -7 -8 -19 0
-3 14 -15 16 -2 4 6 7 8 19 0
-3 14 -15 16 -2 4 6 7 -8 19 0
-3 14 -15 16 -2 4 6 -7 8 19 0
-3 14 -15 16 -2 4 6 -7 -8 -19 0
-3 14 -15 16 -2 4 -6 7 8 19 0
-3 14 -15 16 -2 4 -6 7 -8 -19 0
-3 14 -15 16 -2 4 -6 -7 8 -19 0
-3 14 -15 16 -2 4 -6 -7 -8 -19 0
-3 14 -15 16 -2 -4 6 7 8 19 0
-3 14 -15 16 -2 -4 6 7 -8 -19 0
-3 14 -15 16 -2 -4 6 -7 8 -19 0
-3 14 -15 16 -2 -4 6 -7 -8 -19 0
-3 14 -15 16 -2 -4 -6 7 8 -19 0
-3 14 -15 16 -2 -4 -6 7 -8 -19 0
-3 14 -15 16 -2 -4 -6 -7 8 -19 0
-3 14 -15 16 -2 -4 -6 -7 -8 -19 0
-3 14 -15 -16 2 4 6 7 8 19 0
-3 14 -15 -16 2 4 6 7 -8 19 0
-3 14 -15 -16 2 4 6 -7 8 19 0
-3 14 -15 -16 2 4 6 -7 -8 -19 0
-3 14 -15 -16 2 4 -6 7 8 19 0
-3 14 -15 -16 2 4 -6 7 -8 -19 0
-3 14 -15 -16 2 4 -6 -7 8 -19 0
-3 14 -15 -16 2 4 -6 -7 -8 -19 0
-3 14 -15 -16 2 -4 6 7 8 19 0
-3 14 -15 -16 2 -4 6 7 -8 -19 0
-3 14 -15 -16 2 -4 6 -7 8 -19 0
-3 14 -15 -16 2 -4 6 -7 -8 -19 0
-3 14 -15 -16 2 -4 -6 7 8 -19 0
-3 14 -15 -16 2 -4 -6 7 -8 -19 0
-3 14 -15 -16 2 -4 -6 -7 8 -19 0
-3 14 -15 -16 2 -4 -6 -7 -8 -19 0
-3 14 -15 -16 -2 4 6 7 8 19 0
-3 14 -15 -16 -2 4 6 7 -8 -19 0
-3 14 -15 -16 -2 4 6 -7 8 -19 0
-3 14 -15 -16 -2 4 6 -7 -8 -19 0
-3 14 -15 -16 -2 4 -6 7 8 -19 0
-3 14 -15 -16 -2 4 -6 7 -8 -19 0
-3 14 -15 -16 -2 4 -6 -7 8 -19 0
-3 14 -15 -16 -2 4 -6 -7 -8 -19 0
-3 14 -15 -16 -2 -4 6 7 8 -19 0
-3 14 -15 -16 -2 -4 6 7 -8 -19 0
-3 14 -15 -16 -2 -4 6 -7 8 -19 0
-3 14 -15 -16 -2 -4 6 -7 -8 -19 0
-3 14 -15 -16 -2 -4 -6 7 8 -19 0
-3 14 -15 -16 -2 -4 -6 7 -8 -19 0
-3 14 -15 -16 -2 -4 -6 -7 8 -19 0
-3 14 -15 -16 -2 -4 -6 -7 -8 -19 0
-3 -14 15 16 2 4 6 7 8 -19 0
-3 -14 15 16 2 4 6 7 -8 19 0
-3 -14 15 16 2 4 6 -7 8 19 0
-3 -14 15 16 2 4 6 -7 -8 19 0
-3 -14 15 16 2 4 -6 7 8 19 0
-3 -14 15 16 2 4 -6 7 -8 19 0
-3 -14 15 16 2 4 -6 -7 8 19 0
-3 -14 15 16 2 4 -6 -7 -8 -19 0
-3 -14 15 16 2 -4 6 7 8 19 0
-3 -14 15 16 2 -4 6 7 -8 19 0
-3 -14 15 16 2 -4 6 -7 8 19 0
-3 -14 15 16 2 -4 6 -7 -8 -19 0
-3 -14 15 16 2 -4 -6 7 8 19 0
-3 -14 15 16 2 -4 -6 7 -8 -19 0
-3 -14 15 16 2 -4 -6 -7 8 -19 0
-3 -14 15 16 2 -4 -6 -7 -8 -19 0
-3 -14 15 16 -2 4 6 7 8 19 0
-3 -14 15 16 -2 4 6 7 -8 19 0
-3 -14 15 16 -2 4 6 -7 8 19 0
-3 -14 15 16 -2 4 6 -7 -8 -19 0
-3 -14 15 16 -2 4 -6 7 8 19 0
-3 -14 15 16 -2 4 -6 7 -8 -19 0
-3 -14 15 16 -2 4 -6 -7 8 -19 0
-3 -14 15 16 -2 4 -6 -7 -8 -19 0
-3 -14 15 16 -2 -4 6 7 8 19 0
-3 -14 15 16 -2 -4 6 7 -8 -19 0
-3 -14 15 16 -2 -4 6 -7 8 -19 0
-3 -14 15 16 -2 -4 6 -7 -8 -19 0
-3 -14 15 16 -2 -4 -6 7 8 -19 0
-3 -14 15 16 -2 -4 -6 7 -8 -19 0
-3 -14 15 16 -2 -4 -6 -7 8 -19 0
-3 -14 15 16 -2 -4 -6 -7 -8 -19 0
-3 -14 15 -16 2 4 6 7 8 19 0
-3 -14 15 -16 2 4 6 7 -8 19 0
-3 -14 15 -16 2 4 6 -7 8 19 0
-3 -14 15 -16 2 4 6 -7 -8 -19 0
-3 -14 15 -16 2 4 -6 7 8 19 0
-3 -14 15 -16 2 4 -6 7 -8 -19 0
-3 -14 15 -16 2 4 -6 -7 8 -19 0
-3 -14 15 -16 2 4 -6 -7 -8 -19 0
-3 -14 15 -16 2 -4 6 7 8 19 0
-3 -14 15 -16 2 -4 6 7 -8 -19 0
-3 -14 15 -16 2 -4 6 -7 8 -19 0
-3 -14 15 -16 2 -4 6 -7 -8 -19 0
-3 -14 15 -16 2 -4 -6 7 8 -19 0
-3 -14 15 -16 2 -4 -6 7 -8 -19 0
-3 -14 15 -16 2 -4 -6 -7 8 -19 0
-3 -14 15 -16 2 -4 -6 -7 -8 -19 0
-3 -14 15 -16 -2 4 6 7 8 19 0
-3 -14 15 -16 -2 4 6 7 -8 -19 0
-3 -14 15 -16 -2 4 6 -7 8 -19 0
-3 -14 15 -16 -2 4 6 -7 -8 -19 0
-3 -14 15 -16 -2 4 -6 7 8 -19 0
-3 -14 15 -16 -2 4 -6 7 -8 -19 0
-3 -14 15 -16 -2 4 -6 -7 8 -19 0
-3 -14 15 -16 -2 4 -6 -7 -8 -19 0
-3 -14 15 -16 -2 -4 6 7 8 -19 0
-3 -14 15 -16 -2 -4 6 7 -8 -19 0
-3 -14 15 -16 -2 -4 6 -7 8 -19 0
-3 -14 15 -16 -2 -4 6 -7 -8 -19 0
-3 -14 15 -16 -2 -4 -6 7 8 -19 0
-3 -14 15 -16 -2 -4 -6 7 -8 -19 0
-3 -14 15 -16 -2 -4 -6 -7 8 -19 0
-3 -14 15 -16 -2 -4 -6 -7 -8 -19 0
-3 -14 -15 16 2 4 6 7 8 19 0
-3 -14 -15 16 2 4 6 7 -8 19 0
-3 -14 -15 16 2 4 6 -7 8 19 0
-3 -14 -15 16 2 4 6 -7 -8 -19 0
-3 -14 -15 16 2 4 -6 7 8 19 0
-3 -14 -15 16 2 4 -6 7 -8 -19 0
-3 -14 -15 16 2 4 -6 -7 8 -19 0
-3 -14 -15 16 2 4 -6 -7 -8 -19 0
-3 -14 -15 16 2 -4 6 7 8 19 0
-3 -14 -15 16 2 -4 6 7 -8 -19 0
-3 -14 -15 16 2 -4 6 -7 8 -19 0
-3 -14 -15 16 2 -4 6 -7 -8 -19 0
-3 -14 -15 16 2 -4 -6 7 8 -19 0
-3 -14 -15 16 2 -4 -6 7 -8 -19 0
-3 -14 -15 16 2 -4 -6 -7 8 -19 0
-3 -14 -15 16 2 -4 -6 -7 -8 -19 0
-3 -14 -15 16 -2 4 6 7 8 19 0
-3 -14 -15 16 -2 4 6 7 -8 -19 0
-3 -14 -15 16 -2 4 6 -7 8 -19 0
-3 -14 -15 16 -2 4 6 -7 -8 -19 0
-3 -14 -15 16 -2 4 -6 7 8 -19 0
-3 -14 -15 16 -2 4 -6 7 -8 -19 0
-3 -14 -15 16 -2 4 -6 -7 8 -19 0
-3 -14 -15 16 -2 4 -6 -7 -8 -19 0
-3 -14 -15 16 -2 -4 6 7 8 -19 0
-3 -14 -15 16 -2 -4 6 7 -8 -19 0
-3 -14 -15 16 -2 -4 6 -7 8 -19 0
-3 -14 -15 16 -2 -4 6 -7 -8 -19 0
-3 -14 -15 16 -2 -4 -6 7 8 -19 0
-3 -14 -15 16 -2 -4 -6 7 -8 -19 0
-3 -14 -15 16 -2 -4 -6 -7 8 -19 0
-3 -14 -15 16 -2 -4 -6 -7 -8 -19 0
-3 -14 -15 -16 2 4 6 7 8 19 0
-3 -14 -15 -16 2 4 6 7 -8 -19 0
-3 -14 -15 -16 2 4 6 -7 8 -19 0
-3 -14 -15 -16 2 4 6 -7 -8 -19 0
-3 -14 -15 -16 2 4 -6 7 8 -19 0
-3 -14 -15 -16 2 4 -6 7 -8 -19 0
-3 -14 -15 -16 2 4 -6 -7 8 -19 0
-3 -14 -15 -16 2 4 -6 -7 -8 -19 0
-3 -14 -15 -16 2 -4 6 7 8 -19 0
-3 -14 -15 -16 2 -4 6 7 -8 -19 0
-3 -14 -15 -16 2 -4 6 -7 8 -19 0
-3 -14 -15 -16 2 -4 6 -7 -8 -19 0
-3 -14 -15 -16 2 -4 -6 7 8 -19 0
-3 -14 -15 -16 2 -4 -6 7 -8 -19 0
-3 -14 -15 -16 2 -4 -6 -7 8 -19 0
-3 -14 -15 -16 2 -4 -6 -7 -8 -19 0
-3 -14 -15 -16 -2 4 6 7 8 -19 0
-3 -14 -15 -16 -2 4 6 7 -8 -19 0
-3 -14 -15 -16 -2 4 6 -7 8 -19 0
-3 -14 -15 -16 -2 4 6 -7 -8 -19 0
-3 -14 -15 -16 -2 4 -6 7 8 -19 0
-3 -14 -15 -16 -2 4 -6 7 -8 -19 0
-3 -14 -15 -16 -2 4 -6 -7 8 -19 0
-3 -14 -15 -16 -2 4 -6 -7 -8 -19 0
-3 -14 -15 -16 -2 -4 6 7 8 -19 0
-3 -14 -15 -16 -2 -4 6 7 -8 -19 0
-3 -14 -15 -16 -2 -4 6 -7 8 -19 0
-3 -14 -15 -16 -2 -4 6 -7 -8 -19 0
-3 -14 -15 -16 -2 -4 -6 7 8 -19 0
-3 -14 -15 -16 -2 -4 -6 7 -8 -19 0
-3 -14 -15 -16 -2 -4 -6 -7 8 -19 0
-3 -14 -15 -16 -2 -4 -6 -7 -8 -19 0
4 15 16 13 3 1 7 8 5 -20 0
4 15 16 13 3 1 7 8 -5 -20 0
4 15 16 13 3 1 7 -8 5 -20 0
4 15 16 13 3 1 7 -8 -5 -20 0
4 15 16 13 3 1 -7 8 5 -20 0
4 15 16 13 3 1 -7 8 -5 -20 0
4 15 16 13 3 1 -7 -8 5 -20 0
4 15 16 13 3 1 -7 -8 -5 20 0
4 15 16 13 3 -1 7 8 5 -20 0
4 15 16 13 3 -1 7 8 -5 -20 0
4 15 16 13 3 -1 7 -8 5 -20 0
4 15 16 13 3 -1 7 -8 -5 20 0
4 15 16 13 3 -1 -7 8 5 -20 0
4 15 16 13 3 -1 -7 8 -5 20 0
4 15 16 13 3 -1 -7 -8 5 20 0
4 15 16 13 3 -1 -7 -8 -5 -20 0
4 15 16 13 -3 1 7 8 5 -20 0
4 15 16 13 -3 1 7 8 -5 -20 0
4 15 16 13 -3 1 7 -8 5 -20 0
4 15 16 13 -3 1 7 -8 -5 20 0
4 15 16 13 -3 1 -7 8 5 -20 0
4 15 16 13 -3 1 -7 8 -5 20 0
4 15 16 13 -3 1 -7 -8 5 20 0
4 15 16 13 -3 1 -7 -8 -5 -20 0
4 15 16 13 -3 -1 7 8 5 -20 0
4 15 16 13 -3 -1 7 8 -5 20 0
4 15 16 13 -3 -1 7 -8 5 20 0
4 15 16 13 -3 -1 7 -8 -5 -20 0
4 15 16 13 -3 -1 -7 8 5 20 0
4 15 16 13 -3 -1 -7 8 -5 -20 0
4 15 16 13 -3 -1 -7 -8 5 -20 0
4 15 16 13 -3 -1 -7 -8 -5 -20 0
4 15 16 -13 3 1 7 8 5 -20 0
4 15 16 -13 3 1 7 8 -5 -20 0
4 15 16 -13 3 1 7 -8 5 -20 0
4 15 16 -13 3 1 7 -8 -5 20 0
4 15 16 -13 3 1 -7 8 5 -20 0
4 15 16 -13 3 1 -7 8 -5 20 0
4 15 16 -13 3 1 -7 -8 5 20 0
4 15 16 -13 3 1 -7 -8 -5 -20 0
4 15 16 -13 3 -1 7 8 5 -20 0
4 15 16 -13 3 -1 7 8 -5 20 0
4 15 16 -13 3 -1 7 -8 5 20 0
4 15 16 -13 3 -1 7 -8 -5 -20 0
4 15 16 -13 3 -1 -7 8 5 20 0
4 15 16 -13 3 -1 -7 8 -5 -20 0
4 15 16 -13 3 -1 -7 -8 5 -20 0
4 15 16 -13 3 -1 -7 -8 -5 -20 0
4 15 16 -13 -3 1 7 8 5 -20 0
4 15 16 -13 -3 1 7 8 -5 20 0
4 15 16 -13 -3 1 7 -8 5 20 0
4 15 16 -13 -3 1 7 -8 -5 -20 0
4 15 16 -13 -3 1 -7 8 5 20 0
4 15 16 -13 -3 1 -7 8 -5 -20 0
4 15 16 -13 -3 1 -7 -8 5 -20 0
4 15 16 -13 -3 1 -7 -8 -5 -20 0
4 15 16 -13 -3 -1 7 8 5 20 0
4 15 16 -13 -3 -1 7 8 -5 -20 0
4 15 16 -13 -3 -1 7 -8 5 -20 0
4 15 16 -13 -3 -1 7 -8 -5 -20 0
4 15 16 -13 -3 -1 -7 8 5 -20 0
4 15 16 -13 -3 -1 -7 8 -5 -20 0
4 15 16 -13 -3 -1 -7 -8 5 -20 0
4 15 16 -13 -3 -1 -7 -8 -5 -20 0
4 15 -16 13 3 1 7 8 5 -20 0
4 15 -16 13 3 1 7 8 -5 -20 0
4 15 -16 13 3 1 7 -8 5 -20 0
4 15 -16 13 3 1 7 -8 -5 20 0
4 15 -16 13 3 1 -7 8 5 -20 0
4 15 -16 13 3 1 -7 8 -5 20 0
4 15 -16 13 3 1 -7 -8 5 20 0
4 15 -16 13 3 1 -7 -8 -5 -20 0
4 15 -16 13 3 -1 7 8 5 -20 0
4 15 -16 13 3 -1 7 8 -5 20 0
4 15 -16 13 3 -1 7 -8 5 20 0
4 15 -16 13 3 -1 7 -8 -5 -20 0
4 15 -16 13 3 -1 -7 8 5 20 0
4 15 -16 13 3 -1 -7 8 -5 -20 0
4 15 -16 13 3 -1 -7 -8 5 -20 0
4 15 -16 13 3 -1 -7 -8 -5 -20 0
4 15 -16 13 -3 1 7 8 5 -20 0
4 15 -16 13 -3 1 7 8 -5 20 0
4 15 -16 13 -3 1 7 -8 5 20 0
4 15 -16 13 -3 1 7 -8 -5 -20 0
4 15 -16 13 -3 1 -7 8 5 20 0
4 15 -16 13 -3 1 -7 8 -5 -20 0
4 15 -16 13 -3 1 -7 -8 5 -20 0
4 15 -16 13 -3 1 -7 -8 -5 -20 0
4 15 -16 13 -3 -1 7 8 5 20 0
4 15 -16 13 -3 -1 7 8 -5 -20 0
4 15 -16 13 -3 -1 7 -8 5 -20 0
4 15 -16 13 -3 -1 7 -8 -5 -20 0
4 15 -16 13 -3 -1 -7 8 5 -20 0
4 15 -16 13 -3 -1 -7 8 -5 -20 0
4 15 -16 13 -3 -1 -7 -8 5 -20 0
4 15 -16 13 -3 -1 -7 -8 -5 -20 0
4 15 -16 -13 3 1 7 8 5 -20 0
4 15 -16 -13 3 1 7 8 -5 20 0
4 15 -16 -13 3 1 7 -8 5 20 0
4 15 -16 -13 3 1 7 -8 -5 -20 0
4 15 -16 -13 3 1 -7 8 5 20 0
4 15 -16 -13 3 1 -7 8 -5 -20 0
4 15 -16 -13 3 1 -7 -8 5 -20 0
4 15 -16 -13 3 1 -7 -8 -5 -20 0
4 15 -16 -13 3 -1 7 8 5 20 0
4 15 -16 -13 3 -1 7 8 -5 -20 0
4 15 -16 -13 3 -1 7 -8 5 -20 0
4 15 -16 -13 3 -1 7 -8 -5 -20 0
4 15 -16 -13 3 -1 -7 8 5 -20 0
4 15 -16 -13 3 -1 -7 8 -5 -20 0
4 15 -16 -13 3 -1 -7 -8 5 -20 0
4 15 -16 -13 3 -1 -7 -8 -5 -20 0
4 15 -16 -13 -3 1 7 8 5 20 0
4 15 -16 -13 -3 1 7 8 -5 -20 0
4 15 -16 -13 -3 1 7 -8 5 -20 0
4 15 -16 -13 -3 1 7 -8 -5 -20 0
4 15 -16 -13 -3 1 -7 8 5 -20 0
4 15 -16 -13 -3 1 -7 8 -5 -20 0
4 15 -16 -13 -3 1 -7 -8 5 -20 0
4 15 -16 -13 -3 1 -7 -8 -5 -20 0
4 15 -16 -13 -3 -1 7 8 5 -20 0
4 15 -16 -13 -3 -1 7 8 -5 -20 0
4 15 -16 -13 -3 -1 7 -8 5 -20 0
4 15 -16 -13 -3 -1 7 -8 -5 -20 0
4 15 -16 -13 -3 -1 -7 8 5 -20 0
4 15 -16 -13 -3 -1 -7 8 -5 -20 0
4 15 -16 -13 -3 -1 -7 -8 5 -20 0
4 15 -16 -13 -3 -1 -7 -8 -5 -20 0
4 -15 16 13 3 1 7 8 5 -20 0
4 -15 16 13 3 1 7 8 -5 -20 0
4 -15 16 13 3 1 7 -8 5 -20 0
4 -15 16 13 3 1 7 -8 -5 20 0
4 -15 16 13 3 1 -7 8 5 -20 0
4 -15 16 13 3 1 -7 8 -5 20 0
4 -15 16 13 3 1 -7 -8 5 20 0
4 -15 16 13 3 1 -7 -8 -5 -20 0
4 -15 16 13 3 -1 7 8 5 -20 0
4 -15 16 13 3 -1 7 8 -5 20 0
4 -15 16 13 3 -1 7 -8 5 20 0
4 -15 16 13 3 -1 7 -8 -5 -20 0
4 -15 16 13 3 -1 -7 8 5 20 0
4 -15 16 13 3 -1 -7 8 -5 -20 0
4 -15 16 13 3 -1 -7 -8 5 -20 0
4 -15 16 13 3 -1 -7 -8 -5 -20 0
4 -15 16 13 -3 1 7 8 5 -20 0
4 -15 16 13 -3 1 7 8 -5 20 0
4 -15 16 13 -3 1 7 -8 5 20 0
4 -15 16 13 -3 1 7 -8 -5 -20 0
4 -15 16 13 -3 1 -7 8 5 20 0
4 -15 16 13 -3 1 -7 8 -5 -20 0
4 -15 16 13 -3 1 -7 -8 5 -20 0
4 -15 16 13 -3 1 -7 -8 -5 -20 0
4 -15 16 13 -3 -1 7 8 5 20 0
4 -15 16 13 -3 -1 7 8 -5 -20 0
4 -15 16 13 -3 -1 7 -8 5 -20 0
4 -15 16 13 -3 -1 7 -8 -5 -20 0
4 -15 16 13 -3 -1 -7 8 5 -20 0
4 -15 16 13 -3 -1 -7 8 -5 -20 0
4 -15 16 13 -3 -1 -7 -8 5 -20 0
4 -15 16 13 -3 -1 -7 -8 -5 -20 0
4 -15 16 -13 3 1 7 8 5 -20 0
4 -15 16 -13 3 1 7 8 -5 20 0
4 -15 16 -13 3 1 7 -8 5 20 0
4 -15 16 -13 3 1 7 -8 -5 -20 0
4 -15 16 -13 3 1 -7 8 5 20 0
4 -15 16 -13 3 1 -7 8 -5 -20 0
4 -15 16 -13 3 1 -7 -8 5 -20 0
4 -15 16 -13 3 1 -7 -8 -5 -20 0
4 -15 16 -13 3 -1 7 8 5 20 0
4 -15 16 -13 3 -1 7 8 -5 -20 0
4 -15 16 -13 3 -1 7 -8 5 -20 0
4 -15 16 -13 3 -1 7 -8 -5 -20 0
4 -15 16 -13 3 -1 -7 8 5 -20 0
4 -15 16 -13 3 -1 -7 8 -5 -20 0
4 -15 16 -13 3 -1 -7 -8 5 -20 0
4 -15 16 -13 3 -1 -7 -8 -5 -20 0
4 -15 16 -13 -3 1 7 8 5 20 0
4 -15 16 -13 -3 1 7 8 -5 -20 0
4 -15 16 -13 -3 1 7 -8 5 -20 0
4 -15 16 -13 -3 1 7 -8 -5 -20 0
4 -15 16 -13 -3 1 -7 8 5 -20 0
4 -15 16 -13 -3 1 -7 8 -5 -20 0
4 -15 16 -13 -3 1 -7 -8 5 -20 0
4 -15 16 -13 -3 1 -7 -8 -5 -20 0
4 -15 16 -13 -3 -1 7 8 5 -20 0
4 -15 16 -13 -3 -1 7 8 -5 -20 0
4 -15 16 -13 -3 -1 7 -8 5 -20 0
4 -15 16 -13 -3 -1 7 -8 -5 -20 0
4 -15 16 -13 -3 -1 -7 8 5 -20 0
4 -15 16 -13 -3 -1 -7 8 -5 -20 0
4 -15 16 -13 -3 -1 -7 -8 5 -20 0
4 -15 16 -13 -3 -1 -7 -8 -5 -20 0
4 -15 -16 13 3 1 7 8 5 -20 0
4 -15 -16 13 3 1 7 8 -5 20 0
4 -15 -16 13 3 1 7 -8 5 20 0
4 -15 -16 13 3 1 7 -8 -5 -20 0
4 -15 -16 13 3 1 -7 8 5 20 0
4 -15 -16 13 3 1 -7 8 -5 -20 0
4 -15 -16 13 3 1 -7 -8 5 -20 0
4 -15 -16 13 3 1 -7 -8 -5 -20 0
4 -15 -16 13 3 -1 7 8 5 20 0
4 -15 -16 13 3 -1 7 8 -5 -20 0
4 -15 -16 13 3 -1 7 -8 5 -20 0
4 -15 -16 13 3 -1 7 -8 -5 -20 0
4 -15 -16 13 3 -1 -7 8 5 -20 0
4 -15 -16 13 3 -1 -7 8 -5 -20 0
4 -15 -16 13 3 -1 -7 -8 5 -20 0
4 -15 -16 13 3 -1 -7 -8 -5 -20 0
4 -15 -16 13 -3 1 7 8 5 20 0
4 -15 -16 13 -3 1 7 8 -5 -20 0
4 -15 -16 13 -3 1 7 -8 5 -20 0
4 -15 -16 13 -3 1 7 -8 -5 -20 0
4 -15 -16 13 -3 1 -7 8 5 -20 0
4 -15 -16 13 -3 1 -7 8 -5 -20 0
4 -15 -16 13 -3 1 -7 -8 5 -20 0
4 -15 -16 13 -3 1 -7 -8 -5 -20 0
4 -15 -16 13 -3 -1 7 8 5 -20 0
4 -15 -16 13 -3 -1 7 8 -5 -20 0
4 -15 -16 13 -3 -1 7 -8 5 -20 0
4 -15 -16 13 -3 -1 7 -8 -5 -20 0
4 -15 -16 13 -3 -1 -7 8 5 -20 0
4 -15 -16 13 -3 -1 -7 8 -5 -20 0
4 -15 -16 13 -3 -1 -7 -8 5 -20 0
4 -15 -16 13 -3 -1 -7 -8 -5 -20 0
4 -15 -16 -13 3 1 7 8 5 20 0
4 -15 -16 -13 3 1 7 8 -5 -20 0
4 -15 -16 -13 3 1 7 -8 5 -20 0
4 -15 -16 -13 3 1 7 -8 -5 -20 0
4 -15 -16 -13 3 1 -7 8 5 -20 0
4 -15 -16 -13 3 1 -7 8 -5 -20 0
4 -15 -16 -13 3 1 -7 -8 5 -20 0
4 -15 -16 -13 3 1 -7 -8 -5 -20 0
4 -15 -16 -13 3 -1 7 8 5 -20 0
4 -15 -16 -13 3 -1 7 8 -5 -20 0
4 -15 -16 -13 3 -1 7 -8 5 -20 0
4 -15 -16 -13 3 -1 7 -8 -5 -20 0
4 -15 -16 -13 3 -1 -7 8 5 -20 0
4 -15 -16 -13 3 -1 -7 8 -5 -20 0
4 -15 -16 -13 3 -1 -7 -8 5 -20 0
4 -15 -16 -13 3 -1 -7 -8 -5 -20 0
4 -15 -16 -13 -3 1 7 8 5 -20 0
4 -15 -16 -13 -3 1 7 8 -5 -20 0
4 -15 -16 -13 -3 1 7 -8 5 -20 0
4 -15 -16 -13 -3 1 7 -8 -5 -20 0
4 -15 -16 -13 -3 1 -7 8 5 -20 0
4 -15 -16 -13 -3 1 -7 8 -5 -20 0
4 -15 -16 -13 -3 1 -7 -8 5 -20 0
4 -15 -16 -13 -3 1 -7 -8 -5 -20 0
4 -15 -16 -13 -3 -1 7 8 5 -20 0
4 -15 -16 -13 -3 -1 7 8 -5 -20 0
4 -15 -16 -13 -3 -1 7 -8 5 -20 0
4 -15 -16 -13 -3 -1 7 -8 -5 -20 0
4 -15 -16 -13 -3 -1 -7 8 5 -20 0
4 -15 -16 -13 -3 -1 -7 8 -5 -20 0
4 -15 -16 -13 -3 -1 -7 -8 5 -20 0
4 -15 -16 -13 -3 -1 -7 -8 -5 -20 0
-4 15 16 13 3 1 7 8 5 -20 0
-4 15 16 13 3 1 7 8 -5 -20 0
-4 15 16 13 3 1 7 -8 5 -20 0
-4 15 16 13 3 1 7 -8 -5 20 0
-4 15 16 13 3 1 -7 8 5 -20 0
-4 15 16 13 3 1 -7 8 -5 20 0
-4 15 16 13 3 1 -7 -8 5 20 0
-4 15 16 13 3 1 -7 -8 -5 20 0
-4 15 16 13 3 -1 7 8 5 -20 0
-4 15 16 13 3 -1 7 8 -5 20 0
-4 15 16 13 3 -1 7 -8 5 20 0
-4 15 16 13 3 -1 7 -8 -5 20 0
-4 15 16 13 3 -1 -7 8 5 20 0
-4 15 16 13 3 -1 -7 8 -5 20 0
-4 15 16 13 3 -1 -7 -8 5 20 0
-4 15 16 13 3 -1 -7 -8 -5 -20 0
-4 15 16 13 -3 1 7 8 5 -20 0
-4 15 16 13 -3 1 7 8 -5 20 0
-4 15 16 13 -3 1 7 -8 5 20 0
-4 15 16 13 -3 1 7 -8 -5 20 0
-4 15 16 13 -3 1 -7 8 5 20 0
-4 15 16 13 -3 1 -7 8 -5 20 0
-4 15 16 13 -3 1 -7 -8 5 20 0
-4 15 16 13 -3 1 -7 -8 -5 -20 0
-4 15 16 13 -3 -1 7 8 5 20 0
-4 15 16 13 -3 -1 7 8 -5 20 0
-4 15 16 13 -3 -1 7 -8 5 20 0
-4 15 16 13 -3 -1 7 -8 -5 -20 0
-4 15 16 13 -3 -1 -7 8 5 20 0
-4 15 16 13 -3 -1 -7 8 -5 -20 0
-4 15 16 13 -3 -1 -7 -8 5 -20 0
-4 15 16 13 -3 -1 -7 -8 -5 -20 0
-4 15 16 -13 3 1 7 8 5 -20 0
-4 15 16 -13 3 1 7 8 -5 20 0
-4 15 16 -13 3 1 7 -8 5 20 0
-4 15 16 -13 3 1 7 -8 -5 20 0
-4 15 16 -13 3 1 -7 8 5 20 0
-4 15 16 -13 3 1 -7 8 -5 20 0
-4 15 16 -13 3 1 -7 -8 5 20 0
-4 15 16 -13 3 1 -7 -8 -5 -20 0
-4 15 16 -13 3 -1 7 8 5 20 0
-4 15 16 -13 3 -1 7 8 -5 20 0
-4 15 16 -13 3 -1 7 -8 5 20 0
-4 15 16 -13 3 -1 7 -8 -5 -20 0
-4 15 16 -13 3 -1 -7 8 5 20 0
-4 15 16 -13 3 -1 -7 8 -5 -20 0
-4 15 16 -13 3 -1 -7 -8 5 -20 0
-4 15 16 -13 3 -1 -7 -8 -5 -20 0
-4 15 16 -13 -3 1 7 8 5 20 0
-4 15 16 -13 -3 1 7 8 -5 20 0
-4 15 16 -13 -3 1 7 -8 5 20 0
-4 15 16 -13 -3 1 7 -8 -5 -20 0
-4 15 16 -13 -3 1 -7 8 5 20 0
-4 15 16 -13 -3 1 -7 8 -5 -20 0
-4 15 16 -13 -3 1 -7 -8 5 -20 0
-4 15 16 -13 -3 1 -7 -8 -5 -20 0
-4 15 16 -13 -3 -1 7 8 5 20 0
-4 15 16 -13 -3 -1 7 8 -5 -20 0
-4 15 16 -13 -3 -1 7 -8 5 -20 0
-4 15 16 -13 -3 -1 7 -8 -5 -20 0
-4 15 16 -13 -3 -1 -7 8 5 -20 0
-4 15 16 -13 -3 -1 -7 8 -5 -20 0
-4 15 16 -13 -3 -1 -7 -8 5 -20 0
-4 15 16 -13 -3 -1 -7 -8 -5 -20 0
-4 15 -16 13 3 1 7 8 5 -20 0
-4 15 -16 13 3 1 7 8 -5 20 0
-4 15 -16 13 3 1 7 -8 5 20 0
-4 15 -16 13 3 1 7 -8 -5 20 0
-4 15 -16 13 3 1 -7 8 5 20 0
-4 15 -16 13 3 1 -7 8 -5 20 0
-4 15 -16 13 3 1 -7 -8 5 20 0
-4 15 -16 13 3 1 -7 -8 -5 -20 0
-4 15 -16 13 3 -1 7 8 5 20 0
-4 15 -16 13 3 -1 7 8 -5 20 0
-4 15 -16 13 3 -1 7 -8 5 20 0
-4 15 -16 13 3 -1 7 -8 -5 -20 0
-4 15 -16 13 3 -1 -7 8 5 20 0
-4 15 -16 13 3 -1 -7 8 -5 -20 0
-4 15 -16 13 3 -1 -7 -8 5 -20 0
-4 15 -16 13 3 -1 -7 -8 -5 -20 0
-4 15 -16 13 -3 1 7 8 5 20 0
-4 15 -16 13 -3 1 7 8 -5 20 0
-4 15 -16 13 -3 1 7 -8 5 20 0
-4 15 -16 13 -3 1 7 -8 -5 -20 0
-4 15 -16 13 -3 1 -7 8 5 20 0
-4 15 -16 13 -3 1 -7 8 -5 -20 0
-4 15 -16 13 -3 1 -7 -8 5 -20 0
-4 15 -16 13 -3 1 -7 -8 -5 -20 0
-4 15 -16 13 -3 -1 7 8 5 20 0
-4 15 -16 13 -3 -1 7 8 -5 -20 0
-4 15 -16 13 -3 -1 7 -8 5 -20 0
-4 15 -16 13 -3 -1 7 -8 -5 -20 0
-4 15 -16 13 -3 -1 -7 8 5 -20 0
-4 15 -16 13 -3 -1 -7 8 -5 -20 0
-4 15 -16 13 -3 -1 -7 -8 5 -20 0
-4 15 -16 13 -3 -1 -7 -8 -5 -20 0
-4 15 -16 -13 3 1 7 8 5 20 0
-4 15 -16 -13 3 1 7 8 -5 20 0
-4 15 -16 -13 3 1 7 -8 5 20 0
-4 15 -16 -13 3 1 7 -8 -5 -20 0
-4 15 -16 -13 3 1 -7 8 5 20 0
-4 15 -16 -13 3 1 -7 8 -5 -20 0
-4 15 -16 -13 3 1 -7 -8 5 -20 0
-4 15 -16 -13 3 1 -7 -8 -5 -20 0
-4 15 -16 -13 3 -1 7 8 5 20 0
-4 15 -16 -13 3 -1 7 8 -5 -20 0
-4 15 -16 -13 3 -1 7 -8 5 -20 0
-4 15 -16 -13 3 -1 7 -8 -5 -20 0
-4 15 -16 -13 3 -1 -7 8 5 -20 0
-4 15 -16 -13 3 -1 -7 8 -5 -20 0
-4 15 -16 -13 3 -1 -7 -8 5 -20 0
-4 15 -16 -13 3 -1 -7 -8 -5 -20 0
-4 15 -16 -13 -3 1 7 8 5 20 0
-4 15 -16 -13 -3 1 7 8 -5 -20 0
-4 15 -16 -13 -3 1 7 -8 5 -20 0
-4 15 -16 -13 -3 1 7 -8 -5 -20 0
-4 15 -16 -13 -3 1 -7 8 5 -20 0
-4 15 -16 -13 -3 1 -7 8 -5 -20 0
-4 15 -16 -13 -3 1 -7 -8 5 -20 0
-4 15 -16 -13 -3 1 -7 -8 -5 -20 0
-4 15 -16 -13 -3 -1 7 8 5 -20 0
-4 15 -16 -13 -3 -1 7 8 -5 -20 0
-4 15 -16 -13 -3 -1 7 -8 5 -20 0
-4 15 -16 -13 -3 -1 7 -8 -5 -20 0
-4 15 -16 -13 -3 -1 -7 8 5 -20 0
-4 15 -16 -13 -3 -1 -7 8 -5 -20 0
-4 15 -16 -13 -3 -1 -7 -8 5 -20 0
-4 15 -16 -13 -3 -1 -7 -8 -5 -20 0
-4 -15 16 13 3 1 7 8 5 -20 0
-4 -15 16 13 3 1 7 8 -5 20 0
-4 -15 16 13 3 1 7 -8 5 20 0
-4 -15 16 13 3 1 7 -8 -5 20 0
-4 -15 16 13 3 1 -7 8 5 20 0
-4 -15 16 13 3 1 -7 8 -5 20 0
-4 -15 16 13 3 1 -7 -8 5 20 0
-4 -15 16 13 3 1 -7 -8 -5 -20 0
-4 -15 16 13 3 -1 7 8 5 20 0
-4 -15 16 13 3 -1 7 8 -5 20 0
-4 -15 16 13 3 -1 7 -8 5 20 0
-4 -15 16 13 3 -1 7 -8 -5 -20 0
-4 -15 16 13 3 -1 -7 8 5 20 0
-4 -15 16 13 3 -1 -7 8 -5 -20 0
-4 -15 16 13 3 -1 -7 -8 5 -20 0
-4 -15 16 13 3 -1 -7 -8 -5 -20 0
-4 -15 16 13 -3 1 7 8 5 20 0
-4 -15 16 13 -3 1 7 8 -5 20 0
-4 -15 16 13 -3 1 7 -8 5 20 0
-4 -15 16 13 -3 1 7 -8 -5 -20 0
-4 -15 16 13 -3 1 -7 8 5 20 0
-4 -15 16 13 -3 1 -7 8 -5 -20 0
-4 -15 16 13 -3 1 -7 -8 5 -20 0
-4 -15 16 13 -3 1 -7 -8 -5 -20 0
-4 -15 16 13 -3 -1 7 8 5 20 0
-4 -15 16 13 -3 -1 7 8 -5 -20 0
-4 -15 16 13 -3 -1 7 -8 5 -20 0
-4 -15 16 13 -3 -1 7 -8 -5 -20 0
-4 -15 16 13 -3 -1 -7 8 5 -20 0
-4 -15 16 13 -3 -1 -7 8 -5 -20 0
-4 -15 16 13 -3 -1 -7 -8 5 -20 0
-4 -15 16 13 -3 -1 -7 -8 -5 -20 0
-4 -15 16 -13 3 1 7 8 5 20 0
-4 -15 16 -13 3 1 7 8 -5 20 0
-4 -15 16 -13 3 1 7 -8 5 20 0
-4 -15 16 -13 3 1 7 -8 -5 -20 0
-4 -15 16 -13 3 1 -7 8 5 20 0
-4 -15 16 -13 3 1 -7 8 -5 -20 0
-4 -15 16 -13 3 1 -7 -8 5 -20 0
-4 -15 16 -13 3 1 -7 -8 -5 -20 0
-4 -15 16 -13 3 -1 7 8 5 20 0
-4 -15 16 -13 3 -1 7 8 -5 -20 0
-4 -15 16 -13 3 -1 7 -8 5 -20 0
-4 -15 16 -13 3 -1 7 -8 -5 -20 0
-4 -15 16 -13 3 -1 -7 8 5 -20 0
-4 -15 16 -13 3 -1 -7 8 -5 -20 0
-4 -15 16 -13 3 -1 -7 -8 5 -20 0
-4 -15 16 -13 3 -1 -7 -8 -5 -20 0
-4 -15 16 -13 -3 1 7 8 5 20 0
-4 -15 16 -13 -3 1 7 8 -5 -20 0
-4 -15 16 -13 -3 1 7 -8 5 -20 0
-4 -15 16 -13 -3 1 7 -8 -5 -20 0
-4 -15 16 -13 -3 1 -7 8 5 -20 0
-4 -15 16 -13 -3 1 -7 8 -5 -20 0
-4 -15 16 -13 -3 1 -7 -8 5 -20 0
-4 -15 16 -13 -3 1 -7 -8 -5 -20 0
-4 -15 16 -13 -3 -1 7 8 5 -20 0
-4 -15 16 -13 -3 -1 7 8 -5 -20 0
-4 -15 16 -13 -3 -1 7 -8 5 -20 0
-4 -15 16 -13 -3 -1 7 -8 -5 -20 0
-4 -15 16 -13 -3 -1 -7 8 5 -20 0
-4 -15 16 -13 -3 -1 -7 8 -5 -20 0
-4 -15 16 -13 -3 -1 -7 -8 5 -20 0
-4 -15 16 -13 -3 -1 -7 -8 -5 -20 0
-4 -15 -16 13 3 1 7 8 5 20 0
-4 -15 -16 13 3 1 7 8 -5 20 0
-4 -15 -16 13 3 1 7 -8 5 20 0
-4 -15 -16 13 3 1 7 -8 -5 -20 0
-4 -15 -16 13 3 1 -7 8 5 20 0
-4 -15 -16 13 3 1 -7 8 -5 -20 0
-4 -15 -16 13 3 1 -7 -8 5 -20 0
-4 -15 -16 13 3 1 -7 -8 -5 -20 0
-4 -15 -16 13 3 -1 7 8 5 20 0
-4 -15 -16 13 3 -1 7 8 -5 -20 0
-4 -15 -16 13 3 -1 7 -8 5 -20 0
-4 -15 -16 13 3 -1 7 -8 -5 -20 0
-4 -15 -16 13 3 -1 -7 8 5 -20 0
-4 -15 -16 13 3 -1 -7 8 -5 -20 0
-4 -15 -16 13 3 -1 -7 -8 5 -20 0
-4 -15 -16 13 3 -1 -7 -8 -5 -20 0
-4 -15 -16 13 -3 1 7 8 5 20 0
-4 -15 -16 13 -3 1 7 8 -5 -20 0
-4 -15 -16 13 -3 1 7 -8 5 -20 0
-4 -15 -16 13 -3 1 7 -8 -5 -20 0
-4 -15 -16 13 -3 1 -7 8 5 -20 0
-4 -15 -16 13 -3 1 -7 8 -5 -20 0
-4 -15 -16 13 -3 1 -7 -8 5 -20 0
-4 -15 -16 13 -3 1 -7 -8 -5 -20 0
-4 -15 -16 13 -3 -1 7 8 5 -20 0
-4 -15 -16 13 -3 -1 7 8 -5 -20 0
-4 -15 -16 13 -3 -1 7 -8 5 -20 0
-4 -15 -16 13 -3 -1 7 -8 -5 -20 0
-4 -15 -16 13 -3 -1 -7 8 5 -20 0
-4 -15 -16 13 -3 -1 -7 8 -5 -20 0
-4 -15 -16 13 -3 -1 -7 -8 5 -20 0
-4 -15 -16 13 -3 -1 -7 -8 -5 -20 0
-4 -15 -16 -13 3 1 7 8 5 20 0
-4 -15 -16 -13 3 1 7 8 -5 -20 0
-4 -15 -16 -13 3 1 7 -8 5 -20 0
-4 -15 -16 -13 3 1 7 -8 -5 -20 0
-4 -15 -16 -13 3 1 -7 8 5 -20 0
-4 -15 -16 -13 3 1 -7 8 -5 -20 0
-4 -15 -16 -13 3 1 -7 -8 5 -20 0
-4 -15 -16 -13 3 1 -7 -8 -5 -20 0
-4 -15 -16 -13 3 -1 7 8 5 -20 0
-4 -15 -16 -13 3 -1 7 8 -5 -20 0
-4 -15 -16 -13 3 -1 7 -8 5 -20 0
-4 -15 -16 -13 3 -1 7 -8 -5 -20 0
-4 -15 -16 -13 3 -1 -7 8 5 -20 0
-4 -15 -16 -13 3 -1 -7 8 -5 -20 0
-4 -15 -16 -13 3 -1 -7 -8 5 -20 0
-4 -15 -16 -13 3 -1 -7 -8 -5 -20 0
-4 -15 -16 -13 -3 1 7 8 5 -20 0
-4 -15 -16 -13 -3 1 7 8 -5 -20 0
-4 -15 -16 -13 -3 1 7 -8 5 -20 0
-4 -15 -16 -13 -3 1 7 -8 -5 -20 0
-4 -15 -16 -13 -3 1 -7 8 5 -20 0
-4 -15 -16 -13 -3 1 -7 8 -5 -20 0
-4 -15 -16 -13 -3 1 -7 -8 5 -20 0
-4 -15 -16 -13 -3 1 -7 -8 -5 -20 0
-4 -15 -16 -13 -3 -1 7 8 5 -20 0
-4 -15 -16 -13 -3 -1 7 8 -5 -20 0
-4 -15 -16 -13 -3 -1 7 -8 5 -20 0
-4 -15 -16 -13 -3 -1 7 -8 -5 -20 0
-4 -15 -16 -13 -3 -1 -7 8 5 -20 0
-4 -15 -16 -13 -3 -1 -7 8 -5 -20 0
-4 -15 -16 -13 -3 -1 -7 -8 5 -20 0
-4 -15 -16 -13 -3 -1 -7 -8 -5 -20 0
5 4 1 2 8 6 12 9 10 -21 0
5 4 1 2 8 6 12 9 -10 -21 0
5 4 1 2 8 6 12 -9 10 -21 0
5 4 1 2 8 6 12 -9 -10 -21 0
5 4 1 2 8 6 -12 9 10 -21 0
5 4 1 2 8 6 -12 9 -10 -21 0
5 4 1 2 8 6 -12 -9 10 -21 0
5 4 1 2 8 6 -12 -9 -10 21 0
5 4 1 2 8 -6 12 9 10 -21 0
5 4 1 2 8 -6 12 9 -10 -21 0
5 4 1 2 8 -6 12 -9 10 -21 0
5 4 1 2 8 -6 12 -9 -10 21 0
5 4 1 2 8 -6 -12 9 10 -21 0
5 4 1 2 8 -6 -12 9 -10 21 0
5 4 1 2 8 -6 -12 -9 10 21 0
5 4 1 2 8 -6 -12 -9 -10 -21 0
5 4 1 2 -8 6 12 9 10 -21 0
5 4 1 2 -8 6 12 9 -10 -21 0
5 4 1 2 -8 6 12 -9 10 -21 0
5 4 1 2 -8 6 12 -9 -10 21 0
5 4 1 2 -8 6 -12 9 10 -21 0
5 4 1 2 -8 6 -12 9 -10 21 0
5 4 1 2 -8 6 -12 -9 10 21 0
5 4 1 2 -8 6 -12 -9 -10 -21 0
5 4 1 2 -8 -6 12 9 10 -21 0
5 4 1 2 -8 -6 12 9 -10 21 0
5 4 1 2 -8 -6 12 -9 10 21 0
5 4 1 2 -8 -6 12 -9 -10 -21 0
5 4 1 2 -8 -6 -12 9 10 21 0
5 4 1 2 -8 -6 -12 9 -10 -21 0
5 4 1 2 -8 -6 -12 -9 10 -21 0
5 4 1 2 -8 -6 -12 -9 -10 -21 0
5 4 1 -2 8 6 12 9 10 -21 0
5 4 1 -2 8 6 12 9 -10 -21 0
5 4 1 -2 8 6 12 -9 10 -21 0
5 4 1 -2 8 6 12 -9 -10 21 0
5 4 1 -2 8 6 -12 9 10 -21 0
5 4 1 -2 8 6 -12 9 -10 21 0
5 4 1 -2 8 6 -12 -9 10 21 0
5 4 1 -2 8 6 -12 -9 -10 -21 0
5 4 1 -2 8 -6 12 9 10 -21 0
5 4 1 -2 8 -6 12 9 -10 21 0
5 4 1 -2 8 -6 12 -9 10 21 0
5 4 1 -2 8 -6 12 -9 -10 -21 0
5 4 1 -2 8 -6 -12 9 10 21 0
5 4 1 -2 8 -6 -12 9 -10 -21 0
5 4 1 -2 8 -6 -12 -9 10 -21 0
5 4 1 -2 8 -6 -12 -9 -10 -21 0
5 4 1 -2 -8 6 12 9 10 -21 0
5 4 1 -2 -8 6 12 9 -10 21 0
5 4 1 -2 -8 6 12 -9 10 21 0
5 4 1 -2 -8 6 12 -9 -10 -21 0
5 4 1 -2 -8 6 -12 9 10 21 0
5 4 1 -2 -8 6 -12 9 -10 -21 0
5 4 1 -2 -8 6 -12 -9 10 -21 0
5 4 1 -2 -8 6 -12 -9 -10 -21 0
5 4 1 -2 -8 -6 12 9 10 21 0
5 4 1 -2 -8 -6 12 9 -10 -21 0
5 4 1 -2 -8 -6 12 -9 10 -21 0
5 4 1 -2 -8 -6 12 -9 -10 -21 0
5 4 1 -2 -8 -6 -12 9 10 -21 0
5 4 1 -2 -8 -6 -12 9 -10 -21 0
5 4 1 -2 -8 -6 -12 -9 10 -21 0
5 4 1 -2 -8 -6 -12 -9 -10 -21 0
5 4 -1 2 8 6 12 9 10 -21 0
5 4 -1 2 8 6 12 9 -10 -21 0
5 4 -1 2 8 6 12 -9 10 -21 0
5 4 -1 2 8 6 12 -9 -10 21 0
5 4 -1 2 8 6 -12 9 10 -21 0
5 4 -1 2 8 6 -12 9 -10 21 0
5 4 -1 2 8 6 -12 -9 10 21 0
5 4 -1 2 8 6 -12 -9 -10 -21 0
5 4 -1 2 8 -6 12 9 10 -21 0
5 4 -1 2 8 -6 12 9 -10 21 0
5 4 -1 2 8 -6 12 -9 10 21 0
5 4 -1 2 8 -6 12 -9 -10 -21 0
5 4 -1 2 8 -6 -12 9 10 21 0
5 4 -1 2 8 -6 -12 9 -10 -21 0
5 4 -1 2 8 -6 -12 -9 10 -21 0
5 4 -1 2 8 -6 -12 -9 -10 -21 0
5 4 -1 2 -8 6 12 9 10 -21 0
5 4 -1 2 -8 6 12 9 -10 21 0
5 4 -1 2 -8 6 12 -9 10 21 0
5 4 -1 2 -8 6 12 -9 -10 -21 0
5 4 -1 2 -8 6 -12 9 10 21 0
5 4 -1 2 -8 6 -12 9 -10 -21 0
5 4 -1 2 -8 6 -12 -9 10 -21 0
5 4 -1 2 -8 6 -12 -9 -10 -21 0
5 4 -1 2 -8 -6 12 9 10 21 0
5 4 -1 2 -8 -6 12 9 -10 -21 0
5 4 -1 2 -8 -6 12 -9 10 -21 0
5 4 -1 2 -8 -6 12 -9 -10 -21 0
5 4 -1 2 -8 -6 -12 9 10 -21 0
5 4 -1 2 -8 -6 -12 9 -10 -21 0
5 4 -1 2 -8 -6 -12 -9 10 -21 0
5 4 -1 2 -8 -6 -12 -9 -10 -21 0
5 4 -1 -2 8 6 12 9 10 -21 0
5 4 -1 -2 8 6 12 9 -10 21 0
5 4 -1 -2 8 6 12 -9 10 21 0
5 4 -1 -2 8 6 12 -9 -10 -21 0
5 4 -1 -2 8 6 -12 9 10 21 0
5 4 -1 -2 8 6 -12 9 -10 -21 0
5 4 -1 -2 8 6 -12 -9 10 -21 0
5 4 -1 -2 8 6 -12 -9 -10 -21 0
5 4 -1 -2 8 -6 12 9 10 21 0
5 4 -1 -2 8 -6 12 9 -10 -21 0
5 4 -1 -2 8 -6 12 -9 10 -21 0
5 4 -1 -2 8 -6 12 -9 -10 -21 0
5 4 -1 -2 8 -6 -12 9 10 -21 0
5 4 -1 -2 8 -6 -12 9 -10 -21 0
5 4 -1 -2 8 -6 -12 -9 10 -21 0
5 4 -1 -2 8 -6 -12 -9 -10 -21 0
5 4 -1 -2 -8 6 12 9 10 21 0
5 4 -1 -2 -8 6 12 9 -10 -21 0
5 4 -1 -2 -8 6 12 -9 10 -21 0
5 4 -1 -2 -8 6 12 -9 -10 -21 0
5 4 -1 -2 -8 6 -12 9 10 -21 0
5 4 -1 -2 -8 6 -12 9 -10 -21 0
5 4 -1 -2 -8 6 -12 -9 10 -21 0
5 4 -1 -2 -8 6 -12 -9 -10 -21 0
5 4 -1 -2 -8 -6 12 9 10 -21 0
5 4 -1 -2 -8 -6 12 9 -10 -21 0
5 4 -1 -2 -8 -6 12 -9 10 -21 0
5 4 -1 -2 -8 -6 12 -9 -10 -21 0
5 4 -1 -2 -8 -6 -12 9 10 -21 0
5 4 -1 -2 -8 -6 -12 9 -10 -21 0
5 4 -1 -2 -8 -6 -12 -9 10 -21 0
5 4 -1 -2 -8 -6 -12 -9 -10 -21 0
5 -4 1 2 8 6 12 9 10 -21 0
5 -4 1 2 8 6 12 9 -10 -21 0
5 -4 1 2 8 6 12 -9 10 -21 0
5 -4 1 2 8 6 12 -9 -10 21 0
5 -4 1 2 8 6 -12 9 10 -21 0
5 -4 1 2 8 6 -12 9 -10 21 0
5 -4 1 2 8 6 -12 -9 10 21 0
5 -4 1 2 8 6 -12 -9 -10 -21 0
5 -4 1 2 8 -6 12 9 10 -21 0
5 -4 1 2 8 -6 12 9 -10 21 0
5 -4 1 2 8 -6 12 -9 10 21 0
5 -4 1 2 8 -6 12 -9 -10 -21 0
5 -4 1 2 8 -6 -12 9 10 21 0
5 -4 1 2 8 -6 -12 9 -10 -21 0
5 -4 1 2 8 -6 -12 -9 10 -21 0
5 -4 1 2 8 -6 -12 -9 -10 -21 0
5 -4 1 2 -8 6 12 9 10 -21 0
5 -4 1 2 -8 6 12 9 -10 21 0
5 -4 1 2 -8 6 12 -9 10 21 0
5 -4 1 2 -8 6 12 -9 -10 -21 0
5 -4 1 2 -8 6 -12 9 10 21 0
5 -4 1 2 -8 6 -12 9 -10 -21 0
5 -4 1 2 -8 6 -12 -9 10 -21 0
5 -4 1 2 -8 6 -12 -9 -10 -21 0
5 -4 1 2 -8 -6 12 9 10 21 0
5 -4 1 2 -8 -6 12 9 -10 -21 0
5 -4 1 2 -8 -6 12 -9 10 -21 0
5 -4 1 2 -8 -6 12 -9 -10 -21 0
5 -4 1 2 -8 -6 -12 9 10 -21 0
5 -4 1 2 -8 -6 -12 9 -10 -21 0
5 -4 1 2 -8 -6 -12 -9 10 -21 0
5 -4 1 2 -8 -6 -12 -9 -10 -21 0
5 -4 1 -2 8 6 12 9 10 -21 0
5 -4 1 -2 8 6 12 9 -10 21 0
5 -4 1 -2 8 6 12 -9 10 21 0
5 -4 1 -2 8 6 12 -9 -10 -21 0
5 -4 1 -2 8 6 -12 9 10 21 0
5 -4 1 -2 8 6 -12 9 -10 -21 0
5 -4 1 -2 8 6 -12 -9 10 -21 0
5 -4 1 -2 8 6 -12 -9 -10 -21 0
5 -4 1 -2 8 -6 12 9 10 21 0
5 -4 1 -2 8 -6 12 9 -10 -21 0
5 -4 1 -2 8 -6 12 -9 10 -21 0
5 -4 1 -2 8 -6 12 -9 -10 -21 0
5 -4 1 -2 8 -6 -12 9 10 -21 0
5 -4 1 -2 8 -6 -12 9 -10 -21 0
5 -4 1 -2 8 -6 -12 -9 10 -21 0
5 -4 1 -2 8 -6 -12 -9 -10 -21 0
5 -4 1 -2 -8 6 12 9 10 21 0
5 -4 1 -2 -8 6 12 9 -10 -21 0
5 -4 1 -2 -8 6 12 -9 10 -21 0
5 -4 1 -2 -8 6 12 -9 -10 -21 0
5 -4 1 -2 -8 6 -12 9 10 -21 0
5 -4 1 -2 -8 6 -12 9 -10 -21 0
5 -4 1 -2 -8 6 -12 -9 10 -21 0
5 -4 1 -2 -8 6 -12 -9 -10 -21 0
5 -4 1 -2 -8 -6 12 9 10 -21 0
5 -4 1 -2 -8 -6 12 9 -10 -21 0
5 -4 1 -2 -8 -6 12 -9 10 -21 0
5 -4 1 -2 -8 -6 12 -9 -10 -21 0
5 -4 1 -2 -8 -6 -12 9 10 -21 0
5 -4 1 -2 -8 -6 -12 9 -10 -21 0
5 -4 1 -2 -8 -6 -12 -9 10 -21 0
5 -4 1 -2 -8 -6 -12 -9 -10 -21 0
5 -4 -1 2 8 6 12 9 10 -21 0
5 -4 -1 2 8 6 12 9 -10 21 0
5 -4 -1 2 8 6 12 -9 10 21 0
5 -4 -1 2 8 6 12 -9 -10 -21 0
5 -4 -1 2 8 6 -12 9 10 21 0
5 -4 -1 2 8 6 -12 9 -10 -21 0
5 -4 -1 2 8 6 -12 -9 10 -21 0
5 -4 -1 2 8 6 -12 -9 -10 -21 0
5 -4 -1 2 8 -6 12 9 10 21 0
5 -4 -1 2 8 -6 12 9 -10 -21 0
5 -4 -1 2 8 -6 12 -9 10 -21 0
5 -4 -1 2 8 -6 12 -9 -10 -21 0
5 -4 -1 2 8 -6 -12 9 10 -21 0
5 -4 -1 2 8 -6 -12 9 -10 -21 0
5 -4 -1 2 8 -6 -12 -9 10 -21 0
5 -4 -1 2 8 -6 -12 -9 -10 -21 0
5 -4 -1 2 -8 6 12 9 10 21 0
5 -4 -1 2 -8 6 12 9 -10 -21 0
5 -4 -1 2 -8 6 12 -9 10 -21 0
5 -4 -1 2 -8 6 12 -9 -10 -21 0
5 -4 -1 2 -8 6 -12 9 10 -21 0
5 -4 -1 2 -8 6 -12 9 -10 -21 0
5 -4 -1 2 -8 6 -12 -9 10 -21 0
5 -4 -1 2 -8 6 -12 -9 -10 -21 0
5 -4 -1 2 -8 -6 12 9 10 -21 0
5 -4 -1 2 -8 -6 12 9 -10 -21 0
5 -4 -1 2 -8 -6 12 -9 10 -21 0
5 -4 -1 2 -8 -6 12 -9 -10 -21 0
5 -4 -1 2 -8 -6 -12 9 10 -21 0
5 -4 -1 2 -8 -6 -12 9 -10 -21 0
5 -4 -1 2 -8 -6 -12 -9 10 -21 0
5 -4 -1 2 -8 -6 -12 -9 -10 -21 0
5 -4 -1 -2 8 6 12 9 10 21 0
5 -4 -1 -2 8 6 12 9 -10 -21 0
5 -4 -1 -2 8 6 12 -9 10 -21 0
5 -4 -1 -2 8 6 12 -9 -10 -21 0
5 -4 -1 -2 8 6 -12 9 10 -21 0
5 -4 -1 -2 8 6 -12 9 -10 -21 0
5 -4 -1 -2 8 6 -12 -9 10 -21 0
5 -4 -1 -2 8 6 -12 -9 -10 -21 0
5 -4 -1 -2 8 -6 12 9 10 -21 0
5 -4 -1 -2 8 -6 12 9 -10 -21 0
5 -4 -1 -2 8 -6 12 -9 10 -21 0
5 -4 -1 -2 8 -6 12 -9 -10 -21 0
5 -4 -1 -2 8 -6 -12 9 10 -21 0
5 -4 -1 -2 8 -6 -12 9 -10 -21 0
5 -4 -1 -2 8 -6 -12 -9 10 -21 0
5 -4 -1 -2 8 -6 -12 -9 -10 -21 0
5 -4 -1 -2 -8 6 12 9 10 -21 0
5 -4 -1 -2 -8 6 12 9 -10 -21 0
5 -4 -1 -2 -8 6 12 -9 10 -21 0
5 -4 -1 -2 -8 6 12 -9 -10 -21 0
5 -4 -1 -2 -8 6 -12 9 10 -21 0
5 -4 -1 -2 -8 6 -12 9 -10 -21 0
5 -4 -1 -2 -8 6 -12 -9 10 -21 0
5 -4 -1 -2 -8 6 -12 -9 -10 -21 0
5 -4 -1 -2 -8 -6 12 9 10 -21 0
5 -4 -1 -2 -8 -6 12 9 -10 -21 0
5 -4 -1 -2 -8 -6 12 -9 10 -21 0
5 -4 -1 -2 -8 -6 12 -9 -10 -21 0
5 -4 -1 -2 -8 -6 -12 9 10 -21 0
5 -4 -1 -2 -8 -6 -12 9 -10 -21 0
5 -4 -1 -2 -8 -6 -12 -9 10 -21 0
5 -4 -1 -2 -8 -6 -12 -9 -10 -21 0
-5 4 1 2 8 6 12 9 10 -21 0
-5 4 1 2 8 6 12 9 -10 -21 0
-5 4 1 2 8 6 12 -9 10 -21 0
-5 4 1 2 8 6 12 -9 -10 21 0
-5 4 1 2 8 6 -12 9 10 -21 0
-5 4 1 2 8 6 -12 9 -10 21 0
-5 4 1 2 8 6 -12 -9 10 21 0
-5 4 1 2 8 6 -12 -9 -10 21 0
-5 4 1 2 8 -6 12 9 10 -21 0
-5 4 1 2 8 -6 12 9 -10 21 0
-5 4 1 2 8 -6 12 -9 10 21 0
-5 4 1 2 8 -6 12 -9 -10 21 0
-5 4 1 2 8 -6 -12 9 10 21 0
-5 4 1 2 8 -6 -12 9 -10 21 0
-5 4 1 2 8 -6 -12 -9 10 21 0
-5 4 1 2 8 -6 -12 -9 -10 -21 0
-5 4 1 2 -8 6 12 9 10 -21 0
-5 4 1 2 -8 6 12 9 -10 21 0
-5 4 1 2 -8 6 12 -9 10 21 0
-5 4 1 2 -8 6 12 -9 -10 21 0
-5 4 1 2 -8 6 -12 9 10 21 0
-5 4 1 2 -8 6 -12 9 -10 21 0
-5 4 1 2 -8 6 -12 -9 10 21 0
-5 4 1 2 -8 6 -12 -9 -10 -21 0
-5 4 1 2 -8 -6 12 9 10 21 0
-5 4 1 2 -8 -6 12 9 -10 21 0
-5 4 1 2 -8 -6 12 -9 10 21 0
-5 4 1 2 -8 -6 12 -9 -10 -21 0
-5 4 1 2 -8 -6 -12 9 10 21 0
-5 4 1 2 -8 -6 -12 9 -10 -21 0
-5 4 1 2 -8 -6 -12 -9 10 -21 0
-5 4 1 2 -8 -6 -12 -9 -10 -21 0
-5 4 1 -2 8 6 12 9 10 -21 0
-5 4 1 -2 8 6 12 9 -10 21 0
-5 4 1 -2 8 6 12 -9 10 21 0
-5 4 1 -2 8 6 12 -9 -10 21 0
-5 4 1 -2 8 6 -12 9 10 21 0
-5 4 1 -2 8 6 -12 9 -10 21 0
-5 4 1 -2 8 6 -12 -9 10 21 0
-5 4 1 -2 8 6 -12 -9 -10 -21 0
-5 4 1 -2 8 -6 12 9 10 21 0
-5 4 1 -2 8 -6 12 9 -10 21 0
-5 4 1 -2 8 -6 12 -9 10 21 0
-5 4 1 -2 8 -6 12 -9 -10 -21 0
-5 4 1 -2 8 -6 -12 9 10 21 0
-5 4 1 -2 8 -6 -12 9 -10 -21 0
-5 4 1 -2 8 -6 -12 -9 10 -21 0
-5 4 1 -2 8 -6 -12 -9 -10 -21 0
-5 4 1 -2 -8 6 12 9 10 21 0
-5 4 1 -2 -8 6 12 9 -10 21 0
-5 4 1 -2 -8 6 12 -9 10 21 0
-5 4 1 -2 -8 6 12 -9 -10 -21 0
-5 4 1 -2 -8 6 -12 9 10 21 0
-5 4 1 -2 -8 6 -12 9 -10 -21 0
-5 4 1 -2 -8 6 -12 -9 10 -21 0
-5 4 1 -2 -8 6 -12 -9 -10 -21 0
-5 4 1 -2 -8 -6 12 9 10 21 0
-5 4 1 -2 -8 -6 12 9 -10 -21 0
-5 4 1 -2 -8 -6 12 -9 10 -21 0
-5 4 1 -2 -8 -6 12 -9 -10 -21 0
-5 4 1 -2 -8 -6 -12 9 10 -21 0
-5 4 1 -2 -8 -6 -12 9 -10 -21 0
-5 4 1 -2 -8 -6 -12 -9 10 -21 0
-5 4 1 -2 -8 -6 -12 -9 -10 -21 0
-5 4 -1 2 8 6 12 9 10 -21 0
-5 4 -1 2 8 6 12 9 -10 21 0
-5 4 -1 2 8 6 12 -9 10 21 0
-5 4 -1 2 8 6 12 -9 -10 21 0
-5 4 -1 2 8 6 -12 9 10 21 0
-5 4 -1 2 8 6 -12 9 -10 21 0
-5 4 -1 2 8 6 -12 -9 10 21 0
-5 4 -1 2 8 6 -12 -9 -10 -21 0
-5 4 -1 2 8 -6 12 9 10 21 0
-5 4 -1 2 8 -6 12 9 -10 21 0
-5 4 -1 2 8 -6 12 -9 10 21 0
-5 4 -1 2 8 -6 12 -9 -10 -21 0
-5 4 -1 2 8 -6 -12 9 10 21 0
-5 4 -1 2 8 -6 -12 9 -10 -21 0
-5 4 -1 2 8 -6 -12 -9 10 -21 0
-5 4 -1 2 8 -6 -12 -9 -10 -21 0
-5 4 -1 2 -8 6 12 9 10 21 0
-5 4 -1 2 -8 6 12 9 -10 21 0
-5 4 -1 2 -8 6 12 -9 10 21 0
-5 4 -1 2 -8 6 12 -9 -10 -21 0
-5 4 -1 2 -8 6 -12 9 10 21 0
-5 4 -1 2 -8 6 -12 9 -10 -21 0
-5 4 -1 2 -8 6 -12 -9 10 -21 0
-5 4 -1 2 -8 6 -12 -9 -10 -21 0
-5 4 -1 2 -8 -6 12 9 10 21 0
-5 4 -1 2 -8 -6 12 9 -10 -21 0
-5 4 -1 2 -8 -6 12 -9 10 -21 0
-5 4 -1 2 -8 -6 12 -9 -10 -21 0
-5 4 -1 2 -8 -6 -12 9 10 -21 0
-5 4 -1 2 -8 -6 -12 9 -10 -21 0
-5 4 -1 2 -8 -6 -12 -9 10 -21 0
-5 4 -1 2 -8 -6 -12 -9 -10 -21 0
-5 4 -1 -2 8 6 12 9 10 21 0
-5 4 -1 -2 8 6 12 9 -10 21 0
-5 4 -1 -2 8 6 12 -9 10 21 0
-5 4 -1 -2 8 6 12 -9 -10 -21 0
-5 4 -1 -2 8 6 -12 9 10 21 0
-5 4 -1 -2 8 6 -12 9 -10 -21 0
-5 4 -1 -2 8 6 -12 -9 10 -21 0
-5 4 -1 -2 8 6 -12 -9 -10 -21 0
-5 4 -1 -2 8 -6 12 9 10 21 0
-5 4 -1 -2 8 -6 12 9 -10 -21 0
-5 4 -1 -2 8 -6 12 -9 10 -21 0
-5 4 -1 -2 8 -6 12 -9 -10 -21 0
-5 4 -1 -2 8 -6 -12 9 10 -21 0
-5 4 -1 -2 8 -6 -12 9 -10 -21 0
-5 4 -1 -2 8 -6 -12 -9 10 -21 0
-5 4 -1 -2 8 -6 -12 -9 -10 -21 0
-5 4 -1 -2 -8 6 12 9 10 21 0
-5 4 -1 -2 -8 6 12 9 -10 -21 0
-5 4 -1 -2 -8 6 12 -9 10 -21 0
-5 4 -1 -2 -8 6 12 -9 -10 -21 0
-5 4 -1 -2 -8 6 -12 9 10 -21 0
-5 4 -1 -2 -8 6 -12 9 -10 -21 0
-5 4 -1 -2 -8 6 -12 -9 10 -21 0
-5 4 -1 -2 -8 6 -12 -9 -10 -21 0
-5 4 -1 -2 -8 -6 12 9 10 -21 0
-5 4 -1 -2 -8 -6 12 9 -10 -21 0
-5 4 -1 -2 -8 -6 12 -9 10 -21 0
-5 4 -1 -2 -8 -6 12 -9 -10 -21 0
-5 4 -1 -2 -8 -6 -12 9 10 -21 0
-5 4 -1 -2 -8 -6 -12 9 -10 -21 0
-5 4 -1 -2 -8 -6 -12 -9 10 -21 0
-5 4 -1 -2 -8 -6 -12 -9 -10 -21 0
-5 -4 1 2 8 6 12 9 10 -21 0
-5 -4 1 2 8 6 12 9 -10 21 0
-5 -4 1 2 8 6 12 -9 10 21 0
-5 -4 1 2 8 6 12 -9 -10 21 0
-5 -4 1 2 8 6 -12 9 10 21 0
-5 -4 1 2 8 6 -12 9 -10 21 0
-5 -4 1 2 8 6 -12 -9 10 21 0
-5 -4 1 2 8 6 -12 -9 -10 -21 0
-5 -4 1 2 8 -6 12 9 10 21 0
-5 -4 1 2 8 -6 12 9 -10 21 0
-5 -4 1 2 8 -6 12 -9 10 21 0
-5 -4 1 2 8 -6 12 -9 -10 -21 0
-5 -4 1 2 8 -6 -12 9 10 21 0
-5 -4 1 2 8 -6 -12 9 -10 -21 0
-5 -4 1 2 8 -6 -12 -9 10 -21 0
-5 -4 1 2 8 -6 -12 -9 -10 -21 0
-5 -4 1 2 -8 6 12 9 10 21 0
-5 -4 1 2 -8 6 12 9 -10 21 0
-5 -4 1 2 -8 6 12 -9 10 21 0
-5 -4 1 2 -8 6 12 -9 -10 -21 0
-5 -4 1 2 -8 6 -12 9 10 21 0
-5 -4 1 2 -8 6 -12 9 -10 -21 0
-5 -4 1 2 -8 6 -12 -9 10 -21 0
-5 -4 1 2 -8 6 -12 -9 -10 -21 0
-5 -4 1 2 -8 -6 12 9 10 21 0
-5 -4 1 2 -8 -6 12 9 -10 -21 0
-5 -4 1 2 -8 -6 12 -9 10 -21 0
-5 -4 1 2 -8 -6 12 -9 -10 -21 0
-5 -4 1 2 -8 -6 -12 9 10 -21 0
-5 -4 1 2 -8 -6 -12 9 -10 -21 0
-5 -4 1 2 -8 -6 -12 -9 10 -21 0
-5 -4 1 2 -8 -6 -12 -9 -10 -21 0
-5 -4 1 -2 8 6 12 9 10 21 0
-5 -4 1 -2 8 6 12 9 -10 21 0
-5 -4 1 -2 8 6 12 -9 10 21 0
-5 -4 1 -2 8 6 12 -9 -10 -21 0
-5 -4 1 -2 8 6 -12 9 10 21 0
-5 -4 1 -2 8 6 -12 9 -10 -21 0
-5 -4 1 -2 8 6 -12 -9 10 -21 0
-5 -4 1 -2 8 6 -12 -9 -10 -21 0
-5 -4 1 -2 8 -6 12 9 10 21 0
-5 -4 1 -2 8 -6 12 9 -10 -21 0
-5 -4 1 -2 8 -6 12 -9 10 -21 0
-5 -4 1 -2 8 -6 12 -9 -10 -21 0
-5 -4 1 -2 8 -6 -12 9 10 -21 0
-5 -4 1 -2 8 -6 -12 9 -10 -21 0
-5 -4 1 -2 8 -6 -12 -9 10 -21 0
-5 -4 1 -2 8 -6 -12 -9 -10 -21 0
-5 -4 1 -2 -8 6 12 9 10 21 0
-5 -4 1 -2 -8 6 12 9 -10 -21 0
-5 -4 1 -2 -8 6 12 -9 10 -21 0
-5 -4 1 -2 -8 6 12 -9 -10 -21 0
-5 -4 1 -2 -8 6 -12 9 10 -21 0
-5 -4 1 -2 -8 6 -12 9 -10 -21 0
-5 -4 1 -2 -8 6 -12 -9 10 -21 0
-5 -4 1 -2 -8 6 -12 -9 -10 -21 0
-5 -4 1 -2 -8 -6 12 9 10 -21 0
-5 -4 1 -2 -8 -6 12 9 -10 -21 0
-5 -4 1 -2 -8 -6 12 -9 10 -21 0
-5 -4 1 -2 -8 -6 12 -9 -10 -21 0
-5 -4 1 -2 -8 -6 -12 9 10 -21 0
-5 -4 1 -2 -8 -6 -12 9 -10 -21 0
-5 -4 1 -2 -8 -6 -12 -9 10 -21 0
-5 -4 1 -2 -8 -6 -12 -9 -10 -21 0
-5 -4 -1 2 8 6 12 9 10 21 0
-5 -4 -1 2 8 6 12 9 -10 21 0
-5 -4 -1 2 8 6 12 -9 10 21 0
-5 -4 -1 2 8 6 12 -9 -10 -21 0
-5 -4 -1 2 8 6 -12 9 10 21 0
-5 -4 -1 2 8 6 -12 9 -10 -21 0
-5 -4 -1 2 8 6 -12 -9 10 -21 0
-5 -4 -1 2 8 6 -12 -9 -10 -21 0
-5 -4 -1 2 8 -6 12 9 10 21 0
-5 -4 -1 2 8 -6 12 9 -10 -21 0
-5 -4 -1 2 8 -6 12 -9 10 -21 0
-5 -4 -1 2 8 -6 12 -9 -10 -21 0
-5 -4 -1 2 8 -6 -12 9 10 -21 0
-5 -4 -1 2 8 -6 -12 9 -10 -21 0
-5 -4 -1 2 8 -6 -12 -9 10 -21 0
-5 -4 -1 2 8 -6 -12 -9 -10 -21 0
-5 -4 -1 2 -8 6 12 9 10 21 0
-5 -4 -1 2 -8 6 12 9 -10 -21 0
-5 -4 -1 2 -8 6 12 -9 10 -21 0
-5 -4 -1 2 -8 6 12 -9 -10 -21 0
-5 -4 -1 2 -8 6 -12 9 10 -21 0
-5 -4 -1 2 -8 6 -12 9 -10 -21 0
-5 -4 -1 2 -8 6 -12 -9 10 -21 0
-5 -4 -1 2 -8 6 -12 -9 -10 -21 0
-5 -4 -1 2 -8 -6 12 9 10 -21 0
-5 -4 -1 2 -8 -6 12 9 -10 -21 0
-5 -4 -1 2 -8 -6 12 -9 10 -21 0
-5 -4 -1 2 -8 -6 12 -9 -10 -21 0
-5 -4 -1 2 -8 -6 -12 9 10 -21 0
-5 -4 -1 2 -8 -6 -12 9 -10 -21 0
-5 -4 -1 2 -8 -6 -12 -9 10 -21 0
-5 -4 -1 2 -8 -6 -12 -9 -10 -21 0
-5 -4 -1 -2 8 6 12 9 10 21 0
-5 -4 -1 -2 8 6 12 9 -10 -21 0
-5 -4 -1 -2 8 6 12 -9 10 -21 0
-5 -4 -1 -2 8 6 12 -9 -10 -21 0
-5 -4 -1 -2 8 6 -12 9 10 -21 0
-5 -4 -1 -2 8 6 -12 9 -10 -21 0
-5 -4 -1 -2 8 6 -12 -9 10 -21 0
-5 -4 -1 -2 8 6 -12 -9 -10 -21 0
-5 -4 -1 -2 8 -6 12 9 10 -21 0
-5 -4 -1 -2 8 -6 12 9 -10 -21 0
-5 -4 -1 -2 8 -6 12 -9 10 -21 0
-5 -4 -1 -2 8 -6 12 -9 -10 -21 0
-5 -4 -1 -2 8 -6 -12 9 10 -21 0
-5 -4 -1 -2 8 -6 -12 9 -10 -21 0
-5 -4 -1 -2 8 -6 -12 -9 10 -21 0
-5 -4 -1 -2 8 -6 -12 -9 -10 -21 0
-5 -4 -1 -2 -8 6 12 9 10 -21 0
-5 -4 -1 -2 -8 6 12 9 -10 -21 0
-5 -4 -1 -2 -8 6 12 -9 10 -21 0
-5 -4 -1 -2 -8 6 12 -9 -10 -21 0
-5 -4 -1 -2 -8 6 -12 9 10 -21 0
-5 -4 -1 -2 -8 6 -12 9 -10 -21 0
-5 -4 -1 -2 -8 6 -12 -9 10 -21 0
-5 -4 -1 -2 -8 6 -12 -9 -10 -21 0
-5 -4 -1 -2 -8 -6 12 9 10 -21 0
-5 -4 -1 -2 -8 -6 12 9 -10 -21 0
-5 -4 -1 -2 -8 -6 12 -9 10 -21 0
-5 -4 -1 -2 -8 -6 12 -9 -10 -21 0
-5 -4 -1 -2 -8 -6 -12 9 10 -21 0
-5 -4 -1 -2 -8 -6 -12 9 -10 -21 0
-5 -4 -1 -2 -8 -6 -12 -9 10 -21 0
-5 -4 -1 -2 -8 -6 -12 -9 -10 -21 0
6 1 2 3 5 7 9 10 11 -22 0
6 1 2 3 5 7 9 10 -11 -22 0
6 1 2 3 5 7 9 -10 11 -22 0
6 1 2 3 5 7 9 -10 -11 -22 0
6 1 2 3 5 7 -9 10 11 -22 0
6 1 2 3 5 7 -9 10 -11 -22 0
6 1 2 3 5 7 -9 -10 11 -22 0
6 1 2 3 5 7 -9 -10 -11 22 0
6 1 2 3 5 -7 9 10 11 -22 0
6 1 2 3 5 -7 9 10 -11 -22 0
6 1 2 3 5 -7 9 -10 11 -22 0
6 1 2 3 5 -7 9 -10 -11 22 0
6 1 2 3 5 -7 -9 10 11 -22 0
6 1 2 3 5 -7 -9 10 -11 22 0
6 1 2 3 5 -7 -9 -10 11 22 0
6 1 2 3 5 -7 -9 -10 -11 -22 0
6 1 2 3 -5 7 9 10 11 -22 0
6 1 2 3 -5 7 9 10 -11 -22 0
6 1 2 3 -5 7 9 -10 11 -22 0
6 1 2 3 -5 7 9 -10 -11 22 0
6 1 2 3 -5 7 -9 10 11 -22 0
6 1 2 3 -5 7 -9 10 -11 22 0
6 1 2 3 -5 7 -9 -10 11 22 0
6 1 2 3 -5 7 -9 -10 -11 -22 0
6 1 2 3 -5 -7 9 10 11 -22 0
6 1 2 3 -5 -7 9 10 -11 22 0
6 1 2 3 -5 -7 9 -10 11 22 0
6 1 2 3 -5 -7 9 -10 -11 -22 0
6 1 2 3 -5 -7 -9 10 11 22 0
6 1 2 3 -5 -7 -9 10 -11 -22 0
6 1 2 3 -5 -7 -9 -10 11 -22 0
6 1 2 3 -5 -7 -9 -10 -11 -22 0
6 1 2 -3 5 7 9 10 11 -22 0
6 1 2 -3 5 7 9 10 -11 -22 0
6 1 2 -3 5 7 9 -10 11 -22 0
6 1 2 -3 5 7 9 -10 -11 22 0
6 1 2 -3 5 7 -9 10 11 -22 0
6 1 2 -3 5 7 -9 10 -11 22 0
6 1 2 -3 5 7 -9 -10 11 22 0
6 1 2 -3 5 7 -9 -10 -11 -22 0
6 1 2 -3 5 -7 9 10 11 -22 0
6 1 2 -3 5 -7 9 10 -11 22 0
6 1 2 -3 5 -7 9 -10 11 22 0
6 1 2 -3 5 -7 9 -10 -11 -22 0
6 1 2 -3 5 -7 -9 10 11 22 0
6 1 2 -3 5 -7 -9 10 -11 -22 0
6 1 2 -3 5 -7 -9 -10 11 -22 0
6 1 2 -3 5 -7 -9 -10 -11 -22 0
6 1 2 -3 -5 7 9 10 11 -22 0
6 1 2 -3 -5 7 9 10 -11 22 0
6 1 2 -3 -5 7 9 -10 11 22 0
6 1 2 -3 -5 7 9 -10 -11 -22 0
6 1 2 -3 -5 7 -9 10 11 22 0
6 1 2 -3 -5 7 -9 10 -11 -22 0
6 1 2 -3 -5 7 -9 -10 11 -22 0
6 1 2 -3 -5 7 -9 -10 -11 -22 0
6 1 2 -3 -5 -7 9 10 11 22 0
6 1 2 -3 -5 -7 9 10 -11 -22 0
6 1 2 -3 -5 -7 9 -10 11 -22 0
6 1 2 -3 -5 -7 9 -10 -11 -22 0
6 1 2 -3 -5 -7 -9 10 11 -22 0
6 1 2 -3 -5 -7 -9 10 -11 -22 0
6 1 2 -3 -5 -7 -9 -10 11 -22 0
6 1 2 -3 -5 -7 -9 -10 -11 -22 0
6 1 -2 3 5 7 9 10 11 -22 0
6 1 -2 3 5 7 9 10 -11 -22 0
6 1 -2 3 5 7 9 -10 11 -22 0
6 1 -2 3 5 7 9 -10 -11 22 0
6 1 -2 3 5 7 -9 10 11 -22 0
6 1 -2 3 5 7 -9 10 -11 22 0
6 1 -2 3 5 7 -9 -10 11 22 0
6 1 -2 3 5 7 -9 -10 -11 -22 0
6 1 -2 3 5 -7 9 10 11 -22 0
6 1 -2 3 5 -7 9 10 -11 22 0
6 1 -2 3 5 -7 9 -10 11 22 0
6 1 -2 3 5 -7 9 -10 -11 -22 0
6 1 -2 3 5 -7 -9 10 11 22 0
6 1 -2 3 5 -7 -9 10 -11 -22 0
6 1 -2 3 5 -7 -9 -10 11 -22 0
6 1 -2 3 5 -7 -9 -10 -11 -22 0
6 1 -2 3 -5 7 9 10 11 -22 0
6 1 -2 3 -5 7 9 10 -11 22 0
6 1 -2 3 -5 7 9 -10 11 22 0
6 1 -2 3 -5 7 9 -10 -11 -22 0
6 1 -2 3 -5 7 -9 10 11 22 0
6 1 -2 3 -5 7 -9 10 -11 -22 0
6 1 -2 3 -5 7 -9 -10 11 -22 0
6 1 -2 3 -5 7 -9 -10 -11 -22 0
6 1 -2 3 -5 -7 9 10 11 22 0
6 1 -2 3 -5 -7 9 10 -11 -22 0
6 1 -2 3 -5 -7 9 -10 11 -22 0
6 1 -2 3 -5 -7 9 -10 -11 -22 0
6 1 -2 3 -5 -7 -9 10 11 -22 0
6 1 -2 3 -5 -7 -9 10 -11 -22 0
6 1 -2 3 -5 -7 -9 -10 11 -22 0
6 1 -2 3 -5 -7 -9 -10 -11 -22 0
6 1 -2 -3 5 7 9 10 11 -22 0
6 1 -2 -3 5 7 9 10 -11 22 0
6 1 -2 -3 5 7 9 -10 11 22 0
6 1 -2 -3 5 7 9 -10 -11 -22 0
6 1 -2 -3 5 7 -9 10 11 22 0
6 1 -2 -3 5 7 -9 10 -11 -22 0
6 1 -2 -3 5 7 -9 -10 11 -22 0
6 1 -2 -3 5 7 -9 -10 -11 -22 0
6 1 -2 -3 5 -7 9 10 11 22 0
6 1 -2 -3 5 -7 9 10 -11 -22 0
6 1 -2 -3 5 -7 9 -10 11 -22 0
6 1 -2 -3 5 -7 9 -10 -11 -22 0
6 1 -2 -3 5 -7 -9 10 11 -22 0
6 1 -2 -3 5 -7 -9 10 -11 -22 0
6 1 -2 -3 5 -7 -9 -10 11 -22 0
6 1 -2 -3 5 -7 -9 -10 -11 -22 0
6 1 -2 -3 -5 7 9 10 11 22 0
6 1 -2 -3 -5 7 9 10 -11 -22 0
6 1 -2 -3 -5 7 9 -10 11 -22 0
6 1 -2 -3 -5 7 9 -10 -11 -22 0
6 1 -2 -3 -5 7 -9 10 11 -22 0
6 1 -2 -3 -5 7 -9 10 -11 -22 0
6 1 -2 -3 -5 7 -9 -10 11 -22 0
6 1 -2 -3 -5 7 -9 -10 -11 -22 0
6 1 -2 -3 -5 -7 9 10 11 -22 0
6 1 -2 -3 -5 -7 9 10 -11 -22 0
6 1 -2 -3 -5 -7 9 -10 11 -22 0
6 1 -2 -3 -5 -7 9 -10 -11 -22 0
6 1 -2 -3 -5 -7 -9 10 11 -22 0
6 1 -2 -3 -5 -7 -9 10 -11 -22 0
6 1 -2 -3 -5 -7 -9 -10 11 -22 0
6 1 -2 -3 -5 -7 -9 -10 -11 -22 0
6 -1 2 3 5 7 9 10 11 -22 0
6 -1 2 3 5 7 9 10 -11 -22 0
6 -1 2 3 5 7 9 -10 11 -22 0
6 -1 2 3 5 7 9 -10 -11 22 0
6 -1 2 3 5 7 -9 10 11 -22 0
6 -1 2 3 5 7 -9 10 -11 22 0
6 -1 2 3 5 7 -9 -10 11 22 0
6 -1 2 3 5 7 -9 -10 -11 -22 0
6 -1 2 3 5 -7 9 10 11 -22 0
6 -1 2 3 5 -7 9 10 -11 22 0
6 -1 2 3 5 -7 9 -10 11 22 0
6 -1 2 3 5 -7 9 -10 -11 -22 0
6 -1 2 3 5 -7 -9 10 11 22 0
6 -1 2 3 5 -7 -9 10 -11 -22 0
6 -1 2 3 5 -7 -9 -10 11 -22 0
6 -1 2 3 5 -7 -9 -10 -11 -22 0
6 -1 2 3 -5 7 9 10 11 -22 0
6 -1 2 3 -5 7 9 10 -11 22 0
6 -1 2 3 -5 7 9 -10 11 22 0
6 -1 2 3 -5 7 9 -10 -11 -22 0
6 -1 2 3 -5 7 -9 10 11 22 0
6 -1 2 3 -5 7 -9 10 -11 -22 0
6 -1 2 3 -5 7 -9 -10 11 -22 0
6 -1 2 3 -5 7 -9 -10 -11 -22 0
6 -1 2 3 -5 -7 9 10 11 22 0
6 -1 2 3 -5 -7 9 10 -11 -22 0
6 -1 2 3 -5 -7 9 -10 11 -22 0
6 -1 2 3 -5 -7 9 -10 -11 -22 0
6 -1 2 3 -5 -7 -9 10 11 -22 0
6 -1 2 3 -5 -7 -9 10 -11 -22 0
6 -1 2 3 -5 -7 -9 -10 11 -22 0
6 -1 2 3 -5 -7 -9 -10 -11 -22 0
6 -1 2 -3 5 7 9 10 11 -22 0
6 -1 2 -3 5 7 9 10 -11 22 0
6 -1 2 -3 5 7 9 -10 11 22 0
6 -1 2 -3 5 7 9 -10 -11 -22 0
6 -1 2 -3 5 7 -9 10 11 22 0
6 -1 2 -3 5 7 -9 10 -11 -22 0
6 -1 2 -3 5 7 -9 -10 11 -22 0
6 -1 2 -3 5 7 -9 -10 -11 -22 0
6 -1 2 -3 5 -7 9 10 11 22 0
6 -1 2 -3 5 -7 9 10 -11 -22 0
6 -1 2 -3 5 -7 9 -10 11 -22 0
6 -1 2 -3 5 -7 9 -10 -11 -22 0
6 -1 2 -3 5 -7 -9 10 11 -22 0
6 -1 2 -3 5 -7 -9 10 -11 -22 0
6 -1 2 -3 5 -7 -9 -10 11 -22 0
6 -1 2 -3 5 -7 -9 -10 -11 -22 0
6 -1 2 -3 -5 7 9 10 11 22 0
6 -1 2 -3 -5 7 9 10 -11 -22 0
6 -1 2 -3 -5 7 9 -10 11 -22 0
6 -1 2 -3 -5 7 9 -10 -11 -22 0
6 -1 2 -3 -5 7 -9 10 11 -22 0
6 -1 2 -3 -5 7 -9 10 -11 -22 0
6 -1 2 -3 -5 7 -9 -10 11 -22 0
6 -1 2 -3 -5 7 -9 -10 -11 -22 0
6 -1 2 -3 -5 -7 9 10 11 -22 0
6 -1 2 -3 -5 -7 9 10 -11 -22 0
6 -1 2 -3 -5 -7 9 -10 11 -22 0
6 -1 2 -3 -5 -7 9 -10 -11 -22 0
6 -1 2 -3 -5 -7 -9 10 11 -22 0
6 -1 2 -3 -5 -7 -9 10 -11 -22 0
6 -1 2 -3 -5 -7 -9 -10 11 -22 0
6 -1 2 -3 -5 -7 -9 -10 -11 -22 0
6 -1 -2 3 5 7 9 10 11 -22 0
6 -1 -2 3 5 7 9 10 -11 22 0
6 -1 -2 3 5 7 9 -10 11 22 0
6 -1 -2 3 5 7 9 -10 -11 -22 0
6 -1 -2 3 5 7 -9 10 11 22 0
6 -1 -2 3 5 7 -9 10 -11 -22 0
6 -1 -2 3 5 7 -9 -10 11 -22 0
6 -1 -2 3 5 7 -9 -10 -11 -22 0
6 -1 -2 3 5 -7 9 10 11 22 0
6 -1 -2 3 5 -7 9 10 -11 -22 0
6 -1 -2 3 5 -7 9 -10 11 -22 0
6 -1 -2 3 5 -7 9 -10 -11 -22 0
6 -1 -2 3 5 -7 -9 10 11 -22 0
6 -1 -2 3 5 -7 -9 10 -11 -22 0
6 -1 -2 3 5 -7 -9 -10 11 -22 0
6 -1 -2 3 5 -7 -9 -10 -11 -22 0
6 -1 -2 3 -5 7 9 10 11 22 0
6 -1 -2 3 -5 7 9 10 -11 -22 0
6 -1 -2 3 -5 7 9 -10 11 -22 0
6 -1 -2 3 -5 7 9 -10 -11 -22 0
6 -1 -2 3 -5 7 -9 10 11 -22 0
6 -1 -2 3 -5 7 -9 10 -11 -22 0
6 -1 -2 3 -5 7 -9 -10 11 -22 0
6 -1 -2 3 -5 7 -9 -10 -11 -22 0
6 -1 -2 3 -5 -7 9 10 11 -22 0
6 -1 -2 3 -5 -7 9 10 -11 -22 0
6 -1 -2 3 -5 -7 9 -10 11 -22 0
6 -1 -2 3 -5 -7 9 -10 -11 -22 0
6 -1 -2 3 -5 -7 -9 10 11 -22 0
6 -1 -2 3 -5 -7 -9 10 -11 -22 0
6 -1 -2 3 -5 -7 -9 -10 11 -22 0
6 -1 -2 3 -5 -7 -9 -10 -11 -22 0
6 -1 -2 -3 5 7 9 10 11 22 0
6 -1 -2 -3 5 7 9 10 -11 -22 0
6 -1 -2 -3 5 7 9 -10 11 -22 0
6 -1 -2 -3 5 7 9 -10 -11 -22 0
6 -1 -2 -3 5 7 -9 10 11 -22 0
6 -1 -2 -3 5 7 -9 10 -11 -22 0
6 -1 -2 -3 5 7 -9 -10 11 -22 0
6 -1 -2 -3 5 7 -9 -10 -11 -22 0
6 -1 -2 -3 5 -7 9 10 11 -22 0
6 -1 -2 -3 5 -7 9 10 -11 -22 0
6 -1 -2 -3 5 -7 9 -10 11 -22 0
6 -1 -2 -3 5 -7 9 -10 -11 -22 0
6 -1 -2 -3 5 -7 -9 10 11 -22 0
6 -1 -2 -3 5 -7 -9 10 -11 -22 0
6 -1 -2 -3 5 -7 -9 -10 11 -22 0
6 -1 -2 -3 5 -7 -9 -10 -11 -22 0
6 -1 -2 -3 -5 7 9 10 11 -22 0
6 -1 -2 -3 -5 7 9 10 -11 -22 0
6 -1 -2 -3 -5 7 9 -10 11 -22 0
6 -1 -2 -3 -5 7 9 -10 -11 -22 0
6 -1 -2 -3 -5 7 -9 10 11 -22 0
6 -1 -2 -3 -5 7 -9 10 -11 -22 0
6 -1 -2 -3 -5 7 -9 -10 11 -22 0
6 -1 -2 -3 -5 7 -9 -10 -11 -22 0
6 -1 -2 -3 -5 -7 9 10 11 -22 0
6 -1 -2 -3 -5 -7 9 10 -11 -22 0
6 -1 -2 -3 -5 -7 9 -10 11 -22 0
6 -1 -2 -3 -5 -7 9 -10 -11 -22 0
6 -1 -2 -3 -5 -7 -9 10 11 -22 0
6 -1 -2 -3 -5 -7 -9 10 -11 -22 0
6 -1 -2 -3 -5 -7 -9 -10 11 -22 0
6 -1 -2 -3 -5 -7 -9 -10 -11 -22 0
-6 1 2 3 5 7 9 10 11 -22 0
-6 1 2 3 5 7 9 10 -11 -22 0
-6 1 2 3 5 7 9 -10 11 -22 0
-6 1 2 3 5 7 9 -10 -11 22 0
-6 1 2 3 5 7 -9 10 11 -22 0
-6 1 2 3 5 7 -9 10 -11 22 0
-6 1 2 3 5 7 -9 -10 11 22 0
-6 1 2 3 5 7 -9 -10 -11 22 0
-6 1 2 3 5 -7 9 10 11 -22 0
-6 1 2 3 5 -7 9 10 -11 22 0
-6 1 2 3 5 -7 9 -10 11 22 0
-6 1 2 3 5 -7 9 -10 -11 22 0
-6 1 2 3 5 -7 -9 10 11 22 0
-6 1 2 3 5 -7 -9 10 -11 22 0
-6 1 2 3 5 -7 -9 -10 11 22 0
-6 1 2 3 5 -7 -9 -10 -11 -22 0
-6 1 2 3 -5 7 9 10 11 -22 0
-6 1 2 3 -5 7 9 10 -11 22 0
-6 1 2 3 -5 7 9 -10 11 22 0
-6 1 2 3 -5 7 9 -10 -11 22 0
-6 1 2 3 -5 7 -9 10 11 22 0
-6 1 2 3 -5 7 -9 10 -11 22 0
-6 1 2 3 -5 7 -9 -10 11 22 0
-6 1 2 3 -5 7 -9 -10 -11 -22 0
-6 1 2 3 -5 -7 9 10 11 22 0
-6 1 2 3 -5 -7 9 10 -11 22 0
-6 1 2 3 -5 -7 9 -10 11 22 0
-6 1 2 3 -5 -7 9 -10 -11 -22 0
-6 1 2 3 -5 -7 -9 10 11 22 0
-6 1 2 3 -5 -7 -9 10 -11 -22 0
-6 1 2 3 -5 -7 -9 -10 11 -22 0
-6 1 2 3 -5 -7 -9 -10 -11 -22 0
-6 1 2 -3 5 7 9 10 11 -22 0
-6 1 2 -3 5 7 9 10 -11 22 0
-6 1 2 -3 5 7 9 -10 11 22 0
-6 1 2 -3 5 7 9 -10 -11 22 0
-6 1 2 -3 5 7 -9 10 11 22 0
-6 1 2 -3 5 7 -9 10 -11 22 0
-6 1 2 -3 5 7 -9 -10 11 22 0
-6 1 2 -3 5 7 -9 -10 -11 -22 0
-6 1 2 -3 5 -7 9 10 11 22 0
-6 1 2 -3 5 -7 9 10 -11 22 0
-6 1 2 -3 5 -7 9 -10 11 22 0
-6 1 2 -3 5 -7 9 -10 -11 -22 0
-6 1 2 -3 5 -7 -9 10 11 22 0
-6 1 2 -3 5 -7 -9 10 -11 -22 0
-6 1 2 -3 5 -7 -9 -10 11 -22 0
-6 1 2 -3 5 -7 -9 -10 -11 -22 0
-6 1 2 -3 -5 7 9 10 11 22 0
-6 1 2 -3 -5 7 9 10 -11 22 0
-6 1 2 -3 -5 7 9 -10 11 22 0
-6 1 2 -3 -5 7 9 -10 -11 -22 0
-6 1 2 -3 -5 7 -9 10 11 22 0
-6 1 2 -3 -5 7 -9 10 -11 -22 0
-6 1 2 -3 -5 7 -9 -10 11 -22 0
-6 1 2 -3 -5 7 -9 -10 -11 -22 0
-6 1 2 -3 -5 -7 9 10 11 22 0
-6 1 2 -3 -5 -7 9 10 -11 -22 0
-6 1 2 -3 -5 -7 9 -10 11 -22 0
-6 1 2 -3 -5 -7 9 -10 -11 -22 0
-6 1 2 -3 -5 -7 -9 10 11 -22 0
-6 1 2 -3 -5 -7 -9 10 -11 -22 0
-6 1 2 -3 -5 -7 -9 -10 11 -22 0
-6 1 2 -3 -5 -7 -9 -10 -11 -22 0
-6 1 -2 3 5 7 9 10 11 -22 0
-6 1 -2 3 5 7 9 10 -11 22 0
-6 1 -2 3 5 7 9 -10 11 22 0
-6 1 -2 3 5 7 9 -10 -11 22 0
-6 1 -2 3 5 7 -9 10 11 22 0
-6 1 -2 3 5 7 -9 10 -11 22 0
-6 1 -2 3 5 7 -9 -10 11 22 0
-6 1 -2 3 5 7 -9 -10 -11 -22 0
-6 1 -2 3 5 -7 9 10 11 22 0
-6 1 -2 3 5 -7 9 10 -11 22 0
-6 1 -2 3 5 -7 9 -10 11 22 0
-6 1 -2 3 5 -7 9 -10 -11 -22 0
-6 1 -2 3 5 -7 -9 10 11 22 0
-6 1 -2 3 5 -7 -9 10 -11 -22 0
-6 1 -2 3 5 -7 -9 -10 11 -22 0
-6 1 -2 3 5 -7 -9 -10 -11 -22 0
-6 1 -2 3 -5 7 9 10 11 22 0
-6 1 -2 3 -5 7 9 10 -11 22 0
-6 1 -2 3 -5 7 9 -10 11 22 0
-6 1 -2 3 -5 7 9 -10 -11 -22 0
-6 1 -2 3 -5 7 -9 10 11 22 0
-6 1 -2 3 -5 7 -9 10 -11 -22 0
-6 1 -2 3 -5 7 -9 -10 11 -22 0
-6 1 -2 3 -5 7 -9 -10 -11 -22 0
-6 1 -2 3 -5 -7 9 10 11 22 0
-6 1 -2 3 -5 -7 9 10 -11 -22 0
-6 1 -2 3 -5 -7 9 -10 11 -22 0
-6 1 -2 3 -5 -7 9 -10 -11 -22 0
-6 1 -2 3 -5 -7 -9 10 11 -22 0
-6 1 -2 3 -5 -7 -9 10 -11 -22 0
-6 1 -2 3 -5 -7 -9 -10 11 -22 0
-6 1 -2 3 -5 -7 -9 -10 -11 -22 0
-6 1 -2 -3 5 7 9 10 11 22 0
-6 1 -2 -3 5 7 9 10 -11 22 0
-6 1 -2 -3 5 7 9 -10 11 22 0
-6 1 -2 -3 5 7 9 -10 -11 -22 0
-6 1 -2 -3 5 7 -9 10 11 22 0
-6 1 -2 -3 5 7 -9 10 -11 -22 0
-6 1 -2 -3 5 7 -9 -10 11 -22 0
-6 1 -2 -3 5 7 -9 -10 -11 -22 0
-6 1 -2 -3 5 -7 9 10 11 22 0
-6 1 -2 -3 5 -7 9 10 -11 -22 0
-6 1 -2 -3 5 -7 9 -10 11 -22 0
-6 1 -2 -3 5 -7 9 -10 -11 -22 0
-6 1 -2 -3 5 -7 -9 10 11 -22 0
-6 1 -2 -3 5 -7 -9 10 -11 -22 0
-6 1 -2 -3 5 -7 -9 -10 11 -22 0
-6 1 -2 -3 5 -7 -9 -10 -11 -22 0
-6 1 -2 -3 -5 7 9 10 11 22 0
-6 1 -2 -3 -5 7 9 10 -11 -22 0
-6 1 -2 -3 -5 7 9 -10 11 -22 0
-6 1 -2 -3 -5 7 9 -10 -11 -22 0
-6 1 -2 -3 -5 7 -9 10 11 -22 0
-6 1 -2 -3 -5 7 -9 10 -11 -22 0
-6 1 -2 -3 -5 7 -9 -10 11 -22 0
-6 1 -2 -3 -5 7 -9 -10 -11 -22 0
-6 1 -2 -3 -5 -7 9 10 11 -22 0
-6 1 -2 -3 -5 -7 9 10 -11 -22 0
-6 1 -2 -3 -5 -7 9 -10 11 -22 0
-6 1 -2 -3 -5 -7 9 -10 -11 -22 0
-6 1 -2 -3 -5 -7 -9 10 11 -22 0
-6 1 -2 -3 -5 -7 -9 10 -11 -22 0
-6 1 -2 -3 -5 -7 -9 -10 11 -22 0
-6 1 -2 -3 -5 -7 -9 -10 -11 -22 0
-6 -1 2 3 5 7 9 10 11 -22 0
-6 -1 2 3 5 7 9 10 -11 22 0
-6 -1 2 3 5 7 9 -10 11 22 0
-6 -1 2 3 5 7 9 -10 -11 22 0
-6 -1 2 3 5 7 -9 10 11 22 0
-6 -1 2 3 5 7 -9 10 -11 22 0
-6 -1 2 3 5 7 -9 -10 11 22 0
-6 -1 2 3 5 7 -9 -10 -11 -22 0
-6 -1 2 3 5 -7 9 10 11 22 0
-6 -1 2 3 5 -7 9 10 -11 22 0
-6 -1 2 3 5 -7 9 -10 11 22 0
-6 -1 2 3 5 -7 9 -10 -11 -22 0
-6 -1 2 3 5 -7 -9 10 11 22 0
-6 -1 2 3 5 -7 -9 10 -11 -22 0
-6 -1 2 3 5 -7 -9 -10 11 -22 0
-6 -1 2 3 5 -7 -9 -10 -11 -22 0
-6 -1 2 3 -5 7 9 10 11 22 0
-6 -1 2 3 -5 7 9 10 -11 22 0
-6 -1 2 3 -5 7 9 -10 11 22 0
-6 -1 2 3 -5 7 9 -10 -11 -22 0
-6 -1 2 3 -5 7 -9 10 11 22 0
-6 -1 2 3 -5 7 -9 10 -11 -22 0
-6 -1 2 3 -5 7 -9 -10 11 -22 0
-6 -1 2 3 -5 7 -9 -10 -11 -22 0
-6 -1 2 3 -5 -7 9 10 11 22 0
-6 -1 2 3 -5 -7 9 10 -11 -22 0
-6 -1 2 3 -5 -7 9 -10 11 -22 0
-6 -1 2 3 -5 -7 9 -10 -11 -22 0
-6 -1 2 3 -5 -7 -9 10 11 -22 0
-6 -1 2 3 -5 -7 -9 10 -11 -22 0
-6 -1 2 3 -5 -7 -9 -10 11 -22 0
-6 -1 2 3 -5 -7 -9 -10 -11 -22 0
-6 -1 2 -3 5 7 9 10 11 22 0
-6 -1 2 -3 5 7 9 10 -11 22 0
-6 -1 2 -3 5 7 9 -10 11 22 0
-6 -1 2 -3 5 7 9 -10 -11 -22 0
-6 -1 2 -3 5 7 -9 10 11 22 0
-6 -1 2 -3 5 7 -9 10 -11 -22 0
-6 -1 2 -3 5 7 -9 -10 11 -22 0
-6 -1 2 -3 5 7 -9 -10 -11 -22 0
-6 -1 2 -3 5 -7 9 10 11 22 0
-6 -1 2 -3 5 -7 9 10 -11 -22 0
-6 -1 2 -3 5 -7 9 -10 11 -22 0
-6 -1 2 -3 5 -7 9 -10 -11 -22 0
-6 -1 2 -3 5 -7 -9 10 11 -22 0
-6 -1 2 -3 5 -7 -9 10 -11 -22 0
-6 -1 2 -3 5 -7 -9 -10 11 -22 0
-6 -1 2 -3 5 -7 -9 -10 -11 -22 0
-6 -1 2 -3 -5 7 9 10 11 22 0
-6 -1 2 -3 -5 7 9 10 -11 -22 0
-6 -1 2 -3 -5 7 9 -10 11 -22 0
-6 -1 2 -3 -5 7 9 -10 -11 -22 0
-6 -1 2 -3 -5 7 -9 10 11 -22 0
-6 -1 2 -3 -5 7 -9 10 -11 -22 0
-6 -1 2 -3 -5 7 -9 -10 11 -22 0
-6 -1 2 -3 -5 7 -9 -10 -11 -22 0
-6 -1 2 -3 -5 -7 9 10 11 -22 0
-6 -1 2 -3 -5 -7 9 10 -11 -22 0
-6 -1 2 -3 -5 -7 9 -10 11 -22 0
-6 -1 2 -3 -5 -7 9 -10 -11 -22 0
-6 -1 2 -3 -5 -7 -9 10 11 -22 0
-6 -1 2 -3 -5 -7 -9 10 -11 -22 0
-6 -1 2 -3 -5 -7 -9 -10 11 -22 0
-6 -1 2 -3 -5 -7 -9 -10 -11 -22 0
-6 -1 -2 3 5 7 9 10 11 22 0
-6 -1 -2 3 5 7 9 10 -11 22 0
-6 -1 -2 3 5 7 9 -10 11 22 0
-6 -1 -2 3 5 7 9 -10 -11 -22 0
-6 -1 -2 3 5 7 -9 10 11 22 0
-6 -1 -2 3 5 7 -9 10 -11 -22 0
-6 -1 -2 3 5 7 -9 -10 11 -22 0
-6 -1 -2 3 5 7 -9 -10 -11 -22 0
-6 -1 -2 3 5 -7 9 10 11 22 0
-6 -1 -2 3 5 -7 9 10 -11 -22 0
-6 -1 -2 3 5 -7 9 -10 11 -22 0
-6 -1 -2 3 5 -7 9 -10 -11 -22 0
-6 -1 -2 3 5 -7 -9 10 11 -22 0
-6 -1 -2 3 5 -7 -9 10 -11 -22 0
-6 -1 -2 3 5 -7 -9 -10 11 -22 0
-6 -1 -2 3 5 -7 -9 -10 -11 -22 0
-6 -1 -2 3 -5 7 9 10 11 22 0
-6 -1 -2 3 -5 7 9 10 -11 -22 0
-6 -1 -2 3 -5 7 9 -10 11 -22 0
-6 -1 -2 3 -5 7 9 -10 -11 -22 0
-6 -1 -2 3 -5 7 -9 10 11 -22 0
-6 -1 -2 3 -5 7 -9 10 -11 -22 0
-6 -1 -2 3 -5 7 -9 -10 11 -22 0
-6 -1 -2 3 -5 7 -9 -10 -11 -22 0
-6 -1 -2 3 -5 -7 9 10 11 -22 0
-6 -1 -2 3 -5 -7 9 10 -11 -22 0
-6 -1 -2 3 -5 -7 9 -10 11 -22 0
-6 -1 -2 3 -5 -7 9 -10 -11 -22 0
-6 -1 -2 3 -5 -7 -9 10 11 -22 0
-6 -1 -2 3 -5 -7 -9 10 -11 -22 0
-6 -1 -2 3 -5 -7 -9 -10 11 -22 0
-6 -1 -2 3 -5 -7 -9 -10 -11 -22 0
-6 -1 -2 -3 5 7 9 10 11 22 0
-6 -1 -2 -3 5 7 9 10 -11 -22 0
-6 -1 -2 -3 5 7 9 -10 11 -22 0
-6 -1 -2 -3 5 7 9 -10 -11 -22 0
-6 -1 -2 -3 5 7 -9 10 11 -22 0
-6 -1 -2 -3 5 7 -9 10 -11 -22 0
-6 -1 -2 -3 5 7 -9 -10 11 -22 0
-6 -1 -2 -3 5 7 -9 -10 -11 -22 0
-6 -1 -2 -3 5 -7 9 10 11 -22 0
-6 -1 -2 -3 5 -7 9 10 -11 -22 0
-6 -1 -2 -3 5 -7 9 -10 11 -22 0
-6 -1 -2 -3 5 -7 9 -10 -11 -22 0
-6 -1 -2 -3 5 -7 -9 10 11 -22 0
-6 -1 -2 -3 5 -7 -9 10 -11 -22 0
-6 -1 -2 -3 5 -7 -9 -10 11 -22 0
-6 -1 -2 -3 5 -7 -9 -10 -11 -22 0
-6 -1 -2 -3 -5 7 9 10 11 -22 0
-6 -1 -2 -3 -5 7 9 10 -11 -22 0
-6 -1 -2 -3 -5 7 9 -10 11 -22 0
-6 -1 -2 -3 -5 7 9 -10 -11 -22 0
-6 -1 -2 -3 -5 7 -9 10 11 -22 0
-6 -1 -2 -3 -5 7 -9 10 -11 -22 0
-6 -1 -2 -3 -5 7 -9 -10 11 -22 0
-6 -1 -2 -3 -5 7 -9 -10 -11 -22 0
-6 -1 -2 -3 -5 -7 9 10 11 -22 0
-6 -1 -2 -3 -5 -7 9 10 -11 -22 0
-6 -1 -2 -3 -5 -7 9 -10 11 -22 0
-6 -1 -2 -3 -5 -7 9 -10 -11 -22 0
-6 -1 -2 -3 -5 -7 -9 10 11 -22 0
-6 -1 -2 -3 -5 -7 -9 10 -11 -22 0
-6 -1 -2 -3 -5 -7 -9 -10 11 -22 0
-6 -1 -2 -3 -5 -7 -9 -10 -11 -22 0
7 2 3 4 6 8 10 11 12 -23 0
7 2 3 4 6 8 10 11 -12 -23 0
7 2 3 4 6 8 10 -11 12 -23 0
7 2 3 4 6 8 10 -11 -12 -23 0
7 2 3 4 6 8 -10 11 12 -23 0
7 2 3 4 6 8 -10 11 -12 -23 0
7 2 3 4 6 8 -10 -11 12 -23 0
7 2 3 4 6 8 -10 -11 -12 23 0
7 2 3 4 6 -8 10 11 12 -23 0
7 2 3 4 6 -8 10 11 -12 -23 0
7 2 3 4 6 -8 10 -11 12 -23 0
7 2 3 4 6 -8 10 -11 -12 23 0
7 2 3 4 6 -8 -10 11 12 -23 0
7 2 3 4 6 -8 -10 11 -12 23 0
7 2 3 4 6 -8 -10 -11 12 23 0
7 2 3 4 6 -8 -10 -11 -12 -23 0
7 2 3 4 -6 8 10 11 12 -23 0
7 2 3 4 -6 8 10 11 -12 -23 0
7 2 3 4 -6 8 10 -11 12 -23 0
7 2 3 4 -6 8 10 -11 -12 23 0
7 2 3 4 -6 8 -10 11 12 -23 0
7 2 3 4 -6 8 -10 11 -12 23 0
7 2 3 4 -6 8 -10 -11 12 23 0
7 2 3 4 -6 8 -10 -11 -12 -23 0
7 2 3 4 -6 -8 10 11 12 -23 0
7 2 3 4 -6 -8 10 11 -12 23 0
7 2 3 4 -6 -8 10 -11 12 23 0
7 2 3 4 -6 -8 10 -11 -12 -23 0
7 2 3 4 -6 -8 -10 11 12 23 0
7 2 3 4 -6 -8 -10 11 -12 -23 0
7 2 3 4 -6 -8 -10 -11 12 -23 0
7 2 3 4 -6 -8 -10 -11 -12 -23 0
7 2 3 -4 6 8 10 11 12 -23 0
7 2 3 -4 6 8 10 11 -12 -23 0
7 2 3 -4 6 8 10 -11 12 -23 0
7 2 3 -4 6 8 10 -11 -12 23 0
7 2 3 -4 6 8 -10 11 12 -23 0
7 2 3 -4 6 8 -10 11 -12 23 0
7 2 3 -4 6 8 -10 -11 12 23 0
7 2 3 -4 6 8 -10 -11 -12 -23 0
7 2 3 -4 6 -8 10 11 12 -23 0
7 2 3 -4 6 -8 10 11 -12 23 0
7 2 3 -4 6 -8 10 -11 12 23 0
7 2 3 -4 6 -8 10 -11 -12 -23 0
7 2 3 -4 6 -8 -10 11 12 23 0
7 2 3 -4 6 -8 -10 11 -12 -23 0
7 2 3 -4 6 -8 -10 -11 12 -23 0
7 2 3 -4 6 -8 -10 -11 -12 -23 0
7 2 3 -4 -6 8 10 11 12 -23 0
7 2 3 -4 -6 8 10 11 -12 23 0
7 2 3 -4 -6 8 10 -11 12 23 0
7 2 3 -4 -6 8 10 -11 -12 -23 0
7 2 3 -4 -6 8 -10 11 12 23 0
7 2 3 -4 -6 8 -10 11 -12 -23 0
7 2 3 -4 -6 8 -10 -11 12 -23 0
7 2 3 -4 -6 8 -10 -11 -12 -23 0
7 2 3 -4 -6 -8 10 11 12 23 0
7 2 3 -4 -6 -8 10 11 -12 -23 0
7 2 3 -4 -6 -8 10 -11 12 -23 0
7 2 3 -4 -6 -8 10 -11 -12 -23 0
7 2 3 -4 -6 -8 -10 11 12 -23 0
7 2 3 -4 -6 -8 -10 11 -12 -23 0
7 2 3 -4 -6 -8 -10 -11 12 -23 0
7 2 3 -4 -6 -8 -10 -11 -12 -23 0
7 2 -3 4 6 8 10 11 12 -23 0
7 2 -3 4 6 8 10 11 -12 -23 0
7 2 -3 4 6 8 10 -11 12 -23 0
7 2 -3 4 6 8 10 -11 -12 23 0
7 2 -3 4 6 8 -10 11 12 -23 0
7 2 -3 4 6 8 -10 11 -12 23 0
7 2 -3 4 6 8 -10 -11 12 23 0
7 2 -3 4 6 8 -10 -11 -12 -23 0
7 2 -3 4 6 -8 10 11 12 -23 0
7 2 -3 4 6 -8 10 11 -12 23 0
7 2 -3 4 6 -8 10 -11 12 23 0
7 2 -3 4 6 -8 10 -11 -12 -23 0
7 2 -3 4 6 -8 -10 11 12 23 0
7 2 -3 4 6 -8 -10 11 -12 -23 0
7 2 -3 4 6 -8 -10 -11 12 -23 0
7 2 -3 4 6 -8 -10 -11 -12 -23 0
7 2 -3 4 -6 8 10 11 12 -23 0
7 2 -3 4 -6 8 10 11 -12 23 0
7 2 -3 4 -6 8 10 -11 12 23 0
7 2 -3 4 -6 8 10 -11 -12 -23 0
7 2 -3 4 -6 8 -10 11 12 23 0
7 2 -3 4 -6 8 -10 11 -12 -23 0
7 2 -3 4 -6 8 -10 -11 12 -23 0
7 2 -3 4 -6 8 -10 -11 -12 -23 0
7 2 -3 4 -6 -8 10 11 12 23 0
7 2 -3 4 -6 -8 10 11 -12 -23 0
7 2 -3 4 -6 -8 10 -11 12 -23 0
7 2 -3 4 -6 -8 10 -11 -12 -23 0
7 2 -3 4 -6 -8 -10 11 12 -23 0
7 2 -3 4 -6 -8 -10 11 -12 -23 0
7 2 -3 4 -6 -8 -10 -11 12 -23 0
7 2 -3 4 -6 -8 -10 -11 -12 -23 0
7 2 -3 -4 6 8 10 11 12 -23 0
7 2 -3 -4 6 8 10 11 -12 23 0
7 2 -3 -4 6 8 10 -11 12 23 0
7 2 -3 -4 6 8 10 -11 -12 -23 0
7 2 -3 -4 6 8 -10 11 12 23 0
7 2 -3 -4 6 8 -10 11 -12 -23 0
7 2 -3 -4 6 8 -10 -11 12 -23 0
7 2 -3 -4 6 8 -10 -11 -12 -23 0
7 2 -3 -4 6 -8 10 11 12 23 0
7 2 -3 -4 6 -8 10 11 -12 -23 0
7 2 -3 -4 6 -8 10 -11 12 -23 0
7 2 -3 -4 6 -8 10 -11 -12 -23 0
7 2 -3 -4 6 -8 -10 11 12 -23 0
7 2 -3 -4 6 -8 -10 11 -12 -23 0
7 2 -3 -4 6 -8 -10 -11 12 -23 0
7 2 -3 -4 6 -8 -10 -11 -12 -23 0
7 2 -3 -4 -6 8 10 11 12 23 0
7 2 -3 -4 -6 8 10 11 -12 -23 0
7 2 -3 -4 -6 8 10 -11 12 -23 0
7 2 -3 -4 -6 8 10 -11 -12 -23 0
7 2 -3 -4 -6 8 -10 11 12 -23 0
7 2 -3 -4 -6 8 -10 11 -12 -23 0
7 2 -3 -4 -6 8 -10 -11 12 -23 0
7 2 -3 -4 -6 8 -10 -11 -12 -23 0
7 2 -3 -4 -6 -8 10 11 12 -23 0
7 2 -3 -4 -6 -8 10 11 -12 -23 0
7 2 -3 -4 -6 -8 10 -11 12 -23 0
7 2 -3 -4 -6 -8 10 -11 -12 -23 0
7 2 -3 -4 -6 -8 -10 11 12 -23 0
7 2 -3 -4 -6 -8 -10 11 -12 -23 0
7 2 -3 -4 -6 -8 -10 -11 12 -23 0
7 2 -3 -4 -6 -8 -10 -11 -12 -23 0
7 -2 3 4 6 8 10 11 12 -23 0
7 -2 3 4 6 8 10 11 -12 -23 0
7 -2 3 4 6 8 10 -11 12 -23 0
7 -2 3 4 6 8 10 -11 -12 23 0
7 -2 3 4 6 8 -10 11 12 -23 0
7 -2 3 4 6 8 -10 11 -12 23 0
7 -2 3 4 6 8 -10 -11 12 23 0
7 -2 3 4 6 8 -10 -11 -12 -23 0
7 -2 3 4 6 -8 10 11 12 -23 0
7 -2 3 4 6 -8 10 11 -12 23 0
7 -2 3 4 6 -8 10 -11 12 23 0
7 -2 3 4 6 -8 10 -11 -12 -23 0
7 -2 3 4 6 -8 -10 11 12 23 0
7 -2 3 4 6 -8 -10 11 -12 -23 0
7 -2 3 4 6 -8 -10 -11 12 -23 0
7 -2 3 4 6 -8 -10 -11 -12 -23 0
7 -2 3 4 -6 8 10 11 12 -23 0
7 -2 3 4 -6 8 10 11 -12 23 0
7 -2 3 4 -6 8 10 -11 12 23 0
7 -2 3 4 -6 8 10 -11 -12 -23 0
7 -2 3 4 -6 8 -10 11 12 23 0
7 -2 3 4 -6 8 -10 11 -12 -23 0
7 -2 3 4 -6 8 -10 -11 12 -23 0
7 -2 3 4 -6 8 -10 -11 -12 -23 0
7 -2 3 4 -6 -8 10 11 12 23 0
7 -2 3 4 -6 -8 10 11 -12 -23 0
7 -2 3 4 -6 -8 10 -11 12 -23 0
7 -2 3 4 -6 -8 10 -11 -12 -23 0
7 -2 3 4 -6 -8 -10 11 12 -23 0
7 -2 3 4 -6 -8 -10 11 -12 -23 0
7 -2 3 4 -6 -8 -10 -11 12 -23 0
7 -2 3 4 -6 -8 -10 -11 -12 -23 0
7 -2 3 -4 6 8 10 11 12 -23 0
7 -2 3 -4 6 8 10 11 -12 23 0
7 -2 3 -4 6 8 10 -11 12 23 0
7 -2 3 -4 6 8 10 -11 -12 -23 0
7 -2 3 -4 6 8 -10 11 12 23 0
7 -2 3 -4 6 8 -10 11 -12 -23 0
7 -2 3 -4 6 8 -10 -11 12 -23 0
7 -2 3 -4 6 8 -10 -11 -12 -23 0
7 -2 3 -4 6 -8 10 11 12 23 0
7 -2 3 -4 6 -8 10 11 -12 -23 0
7 -2 3 -4 6 -8 10 -11 12 -23 0
7 -2 3 -4 6 -8 10 -11 -12 -23 0
7 -2 3 -4 6 -8 -10 11 12 -23 0
7 -2 3 -4 6 -8 -10 11 -12 -23 0
7 -2 3 -4 6 -8 -10 -11 12 -23 0
7 -2 3 -4 6 -8 -10 -11 -12 -23 0
7 -2 3 -4 -6 8 10 11 12 23 0
7 -2 3 -4 -6 8 10 11 -12 -23 0
7 -2 3 -4 -6 8 10 -11 12 -23 0
7 -2 3 -4 -6 8 10 -11 -12 -23 0
7 -2 3 -4 -6 8 -10 11 12 -23 0
7 -2 3 -4 -6 8 -10 11 -12 -23 0
7 -2 3 -4 -6 8 -10 -11 12 -23 0
7 -2 3 -4 -6 8 -10 -11 -12 -23 0
7 -2 3 -4 -6 -8 10 11 12 -23 0
7 -2 3 -4 -6 -8 10 11 -12 -23 0
7 -2 3 -4 -6 -8 10 -11 12 -23 0
7 -2 3 -4 -6 -8 10 -11 -12 -23 0
7 -2 3 -4 -6 -8 -10 11 12 -23 0
7 -2 3 -4 -6 -8 -10 11 -12 -23 0
7 -2 3 -4 -6 -8 -10 -11 12 -23 0
7 -2 3 -4 -6 -8 -10 -11 -12 -23 0
7 -2 -3 4 6 8 10 11 12 -23 0
7 -2 -3 4 6 8 10 11 -12 23 0
7 -2 -3 4 6 8 10 -11 12 23 0
7 -2 -3 4 6 8 10 -11 -12 -23 0
7 -2 -3 4 6 8 -10 11 12 23 0
7 -2 -3 4 6 8 -10 11 -12 -23 0
7 -2 -3 4 6 8 -10 -11 12 -23 0
7 -2 -3 4 6 8 -10 -11 -12 -23 0
7 -2 -3 4 6 -8 10 11 12 23 0
7 -2 -3 4 6 -8 10 11 -12 -23 0
7 -2 -3 4 6 -8 10 -11 12 -23 0
7 -2 -3 4 6 -8 10 -11 -12 -23 0
7 -2 -3 4 6 -8 -10 11 12 -23 0
7 -2 -3 4 6 -8 -10 11 -12 -23 0
7 -2 -3 4 6 -8 -10 -11 12 -23 0
7 -2 -3 4 6 -8 -10 -11 -12 -23 0
7 -2 -3 4 -6 8 10 11 12 23 0
7 -2 -3 4 -6 8 10 11 -12 -23 0
7 -2 -3 4 -6 8 10 -11 12 -23 0
7 -2 -3 4 -6 8 10 -11 -12 -23 0
7 -2 -3 4 -6 8 -10 11 12 -23 0
7 -2 -3 4 -6 8 -10 11 -12 -23 0
7 -2 -3 4 -6 8 -10 -11 12 -23 0
7 -2 -3 4 -6 8 -10 -11 -12 -23 0
7 -2 -3 4 -6 -8 10 11 12 -23 0
7 -2 -3 4 -6 -8 10 11 -12 -23 0
7 -2 -3 4 -6 -8 10 -11 12 -23 0
7 -2 -3 4 -6 -8 10 -11 -12 -23 0
7 -2 -3 4 -6 -8 -10 11 12 -23 0
7 -2 -3 4 -6 -8 -10 11 -12 -23 0
7 -2 -3 4 -6 -8 -10 -11 12 -23 0
7 -2 -3 4 -6 -8 -10 -11 -12 -23 0
7 -2 -3 -4 6 8 10 11 12 23 0
7 -2 -3 -4 6 8 10 11 -12 -23 0
7 -2 -3 -4 6 8 10 -11 12 -23 0
7 -2 -3 -4 6 8 10 -11 -12 -23 0
7 -2 -3 -4 6 8 -10 11 12 -23 0
7 -2 -3 -4 6 8 -10 11 -12 -23 0
7 -2 -3 -4 6 8 -10 -11 12 -23 0
7 -2 -3 -4 6 8 -10 -11 -12 -23 0
7 -2 -3 -4 6 -8 10 11 12 -23 0
7 -2 -3 -4 6 -8 10 11 -12 -23 0
7 -2 -3 -4 6 -8 10 -11 12 -23 0
7 -2 -3 -4 6 -8 10 -11 -12 -23 0
7 -2 -3 -4 6 -8 -10 11 12 -23 0
7 -2 -3 -4 6 -8 -10 11 -12 -23 0
7 -2 -3 -4 6 -8 -10 -11 12 -23 0
7 -2 -3 -4 6 -8 -10 -11 -12 -23 0
7 -2 -3 -4 -6 8 10 11 12 -23 0
7 -2 -3 -4 -6 8 10 11 -12 -23 0
7 -2 -3 -4 -6 8 10 -11 12 -23 0
7 -2 -3 -4 -6 8 10 -11 -12 -23 0
7 -2 -3 -4 -6 8 -10 11 12 -23 0
7 -2 -3 -4 -6 8 -10 11 -12 -23 0
7 -2 -3 -4 -6 8 -10 -11 12 -23 0
7 -2 -3 -4 -6 8 -10 -11 -12 -23 0
7 -2 -3 -4 -6 -8 10 11 12 -23 0
7 -2 -3 -4 -6 -8 10 11 -12 -23 0
7 -2 -3 -4 -6 -8 10 -11 12 -23 0
7 -2 -3 -4 -6 -8 10 -11 -12 -23 0
7 -2 -3 -4 -6 -8 -10 11 12 -23 0
7 -2 -3 -4 -6 -8 -10 11 -12 -23 0
7 -2 -3 -4 -6 -8 -10 -11 12 -23 0
7 -2 -3 -4 -6 -8 -10 -11 -12 -23 0
-7 2 3 4 6 8 10 11 12 -23 0
-7 2 3 4 6 8 10 11 -12 -23 0
-7 2 3 4 6 8 10 -11 12 -23 0
-7 2 3 4 6 8 10 -11 -12 23 0
-7 2 3 4 6 8 -10 11 12 -23 0
-7 2 3 4 6 8 -10 11 -12 23 0
-7 2 3 4 6 8 -10 -11 12 23 0
-7 2 3 4 6 8 -10 -11 -12 23 0
-7 2 3 4 6 -8 10 11 12 -23 0
-7 2 3 4 6 -8 10 11 -12 23 0
-7 2 3 4 6 -8 10 -11 12 23 0
-7 2 3 4 6 -8 10 -11 -12 23 0
-7 2 3 4 6 -8 -10 11 12 23 0
-7 2 3 4 6 -8 -10 11 -12 23 0
-7 2 3 4 6 -8 -10 -11 12 23 0
-7 2 3 4 6 -8 -10 -11 -12 -23 0
-7 2 3 4 -6 8 10 11 12 -23 0
-7 2 3 4 -6 8 10 11 -12 23 0
-7 2 3 4 -6 8 10 -11 12 23 0
-7 2 3 4 -6 8 10 -11 -12 23 0
-7 2 3 4 -6 8 -10 11 12 23 0
-7 2 3 4 -6 8 -10 11 -12 23 0
-7 2 3 4 -6 8 -10 -11 12 23 0
-7 2 3 4 -6 8 -10 -11 -12 -23 0
-7 2 3 4 -6 -8 10 11 12 23 0
-7 2 3 4 -6 -8 10 11 -12 23 0
-7 2 3 4 -6 -8 10 -11 12 23 0
-7 2 3 4 -6 -8 10 -11 -12 -23 0
-7 2 3 4 -6 -8 -10 11 12 23 0
-7 2 3 4 -6 -8 -10 11 -12 -23 0
-7 2 3 4 -6 -8 -10 -11 12 -23 0
-7 2 3 4 -6 -8 -10 -11 -12 -23 0
-7 2 3 -4 6 8 10 11 12 -23 0
-7 2 3 -4 6 8 10 11 -12 23 0
-7 2 3 -4 6 8 10 -11 12 23 0
-7 2 3 -4 6 8 10 -11 -12 23 0
-7 2 3 -4 6 8 -10 11 12 23 0
-7 2 3 -4 6 8 -10 11 -12 23 0
-7 2 3 -4 6 8 -10 -11 12 23 0
-7 2 3 -4 6 8 -10 -11 -12 -23 0
-7 2 3 -4 6 -8 10 11 12 23 0
-7 2 3 -4 6 -8 10 11 -12 23 0
-7 2 3 -4 6 -8 10 -11 12 23 0
-7 2 3 -4 6 -8 10 -11 -12 -23 0
-7 2 3 -4 6 -8 -10 11 12 23 0
-7 2 3 -4 6 -8 -10 11 -12 -23 0
-7 2 3 -4 6 -8 -10 -11 12 -23 0
-7 2 3 -4 6 -8 -10 -11 -12 -23 0
-7 2 3 -4 -6 8 10 11 12 23 0
-7 2 3 -4 -6 8 10 11 -12 23 0
-7 2 3 -4 -6 8 10 -11 12 23 0
-7 2 3 -4 -6 8 10 -11 -12 -23 0
-7 2 3 -4 -6 8 -10 11 12 23 0
-7 2 3 -4 -6 8 -10 11 -12 -23 0
-7 2 3 -4 -6 8 -10 -11 12 -23 0
-7 2 3 -4 -6 8 -10 -11 -12 -23 0
-7 2 3 -4 -6 -8 10 11 12 23 0
-7 2 3 -4 -6 -8 10 11 -12 -23 0
-7 2 3 -4 -6 -8 10 -11 12 -23 0
-7 2 3 -4 -6 -8 10 -11 -12 -23 0
-7 2 3 -4 -6 -8 -10 11 12 -23 0
-7 2 3 -4 -6 -8 -10 11 -12 -23 0
-7 2 3 -4 -6 -8 -10 -11 12 -23 0
-7 2 3 -4 -6 -8 -10 -11 -12 -23 0
-7 2 -3 4 6 8 10 11 12 -23 0
-7 2 -3 4 6 8 10 11 -12 23 0
-7 2 -3 4 6 8 10 -11 12 23 0
-7 2 -3 4 6 8 10 -11 -12 23 0
-7 2 -3 4 6 8 -10 11 12 23 0
-7 2 -3 4 6 8 -10 11 -12 23 0
-7 2 -3 4 6 8 -10 -11 12 23 0
-7 2 -3 4 6 8 -10 -11 -12 -23 0
-7 2 -3 4 6 -8 10 11 12 23 0
-7 2 -3 4 6 -8 10 11 -12 23 0
-7 2 -3 4 6 -8 10 -11 12 23 0
-7 2 -3 4 6 -8 10 -11 -12 -23 0
-7 2 -3 4 6 -8 -10 11 12 23 0
-7 2 -3 4 6 -8 -10 11 -12 -23 0
-7 2 -3 4 6 -8 -10 -11 12 -23 0
-7 2 -3 4 6 -8 -10 -11 -12 -23 0
-7 2 -3 4 -6 8 10 11 12 23 0
-7 2 -3 4 -6 8 10 11 -12 23 0
-7 2 -3 4 -6 8 10 -11 12 23 0
-7 2 -3 4 -6 8 10 -11 -12 -23 0
-7 2 -3 4 -6 8 -10 11 12 23 0
-7 2 -3 4 -6 8 -10 11 -12 -23 0
-7 2 -3 4 -6 8 -10 -11 12 -23 0
-7 2 -3 4 -6 8 -10 -11 -12 -23 0
-7 2 -3 4 -6 -8 10 11 12 23 0
-7 2 -3 4 -6 -8 10 11 -12 -23 0
-7 2 -3 4 -6 -8 10 -11 12 -23 0
-7 2 -3 4 -6 -8 10 -11 -12 -23 0
-7 2 -3 4 -6 -8 -10 11 12 -23 0
-7 2 -3 4 -6 -8 -10 11 -12 -23 0
-7 2 -3 4 -6 -8 -10 -11 12 -23 0
-7 2 -3 4 -6 -8 -10 -11 -12 -23 0
-7 2 -3 -4 6 8 10 11 12 23 0
-7 2 -3 -4 6 8 10 11 -12 23 0
-7 2 -3 -4 6 8 10 -11 12 23 0
-7 2 -3 -4 6 8 10 -11 -12 -23 0
-7 2 -3 -4 6 8 -10 11 12 23 0
-7 2 -3 -4 6 8 -10 11 -12 -23 0
-7 2 -3 -4 6 8 -10 -11 12 -23 0
-7 2 -3 -4 6 8 -10 -11 -12 -23 0
-7 2 -3 -4 6 -8 10 11 12 23 0
-7 2 -3 -4 6 -8 10 11 -12 -23 0
-7 2 -3 -4 6 -8 10 -11 12 -23 0
-7 2 -3 -4 6 -8 10 -11 -12 -23 0
-7 2 -3 -4 6 -8 -10 11 12 -23 0
-7 2 -3 -4 6 -8 -10 11 -12 -23 0
-7 2 -3 -4 6 -8 -10 -11 12 -23 0
-7 2 -3 -4 6 -8 -10 -11 -12 -23 0
-7 2 -3 -4 -6 8 10 11 12 23 0
-7 2 -3 -4 -6 8 10 11 -12 -23 0
-7 2 -3 -4 -6 8 10 -11 12 -23 0
-7 2 -3 -4 -6 8 10 -11 -12 -23 0
-7 2 -3 -4 -6 8 -10 11 12 -23 0
-7 2 -3 -4 -6 8 -10 11 -12 -23 0
-7 2 -3 -4 -6 8 -10 -11 12 -23 0
-7 2 -3 -4 -6 8 -10 -11 -12 -23 0
-7 2 -3 -4 -6 -8 10 11 12 -23 0
-7 2 -3 -4 -6 -8 10 11 -12 -23 0
-7 2 -3 -4 -6 -8 10 -11 12 -23 0
-7 2 -3 -4 -6 -8 10 -11 -12 -23 0
-7 2 -3 -4 -6 -8 -10 11 12 -23 0
-7 2 -3 -4 -6 -8 -10 11 -12 -23 0
-7 2 -3 -4 -6 -8 -10 -11 12 -23 0
-7 2 -3 -4 -6 -8 -10 -11 -12 -23 0
-7 -2 3 4 6 8 10 11 12 -23 0
-7 -2 3 4 6 8 10 11 -12 23 0
-7 -2 3 4 6 8 10 -11 12 23 0
-7 -2 3 4 6 8 10 -11 -12 23 0
-7 -2 3 4 6 8 -10 11 12 23 0
-7 -2 3 4 6 8 -10 11 -12 23 0
-7 -2 3 4 6 8 -10 -11 12 23 0
-7 -2 3 4 6 8 -10 -11 -12 -23 0
-7 -2 3 4 6 -8 10 11 12 23 0
-7 -2 3 4 6 -8 10 11 -12 23 0
-7 -2 3 4 6 -8 10 -11 12 23 0
-7 -2 3 4 6 -8 10 -11 -12 -23 0
-7 -2 3 4 6 -8 -10 11 12 23 0
-7 -2 3 4 6 -8 -10 11 -12 -23 0
-7 -2 3 4 6 -8 -10 -11 12 -23 0
-7 -2 3 4 6 -8 -10 -11 -12 -23 0
-7 -2 3 4 -6 8 10 11 12 23 0
-7 -2 3 4 -6 8 10 11 -12 23 0
-7 -2 3 4 -6 8 10 -11 12 23 0
-7 -2 3 4 -6 8 10 -11 -12 -23 0
-7 -2 3 4 -6 8 -10 11 12 23 0
-7 -2 3 4 -6 8 -10 11 -12 -23 0
-7 -2 3 4 -6 8 -10 -11 12 -23 0
-7 -2 3 4 -6 8 -10 -11 -12 -23 0
-7 -2 3 4 -6 -8 10 11 12 23 0
-7 -2 3 4 -6 -8 10 11 -12 -23 0
-7 -2 3 4 -6 -8 10 -11 12 -23 0
-7 -2 3 4 -6 -8 10 -11 -12 -23 0
-7 -2 3 4 -6 -8 -10 11 12 -23 0
-7 -2 3 4 -6 -8 -10 11 -12 -23 0
-7 -2 3 4 -6 -8 -10 -11 12 -23 0
-7 -2 3 4 -6 -8 -10 -11 -12 -23 0
-7 -2 3 -4 6 8 10 11 12 23 0
-7 -2 3 -4 6 8 10 11 -12 23 0
-7 -2 3 -4 6 8 10 -11 12 23 0
-7 -2 3 -4 6 8 10 -11 -12 -23 0
-7 -2 3 -4 6 8 -10 11 12 23 0
-7 -2 3 -4 6 8 -10 11 -12 -23 0
-7 -2 3 -4 6 8 -10 -11 12 -23 0
-7 -2 3 -4 6 8 -10 -11 -12 -23 0
-7 -2 3 -4 6 -8 10 11 12 23 0
-7 -2 3 -4 6 -8 10 11 -12 -23 0
-7 -2 3 -4 6 -8 10 -11 12 -23 0
-7 -2 3 -4 6 -8 10 -11 -12 -23 0
-7 -2 3 -4 6 -8 -10 11 12 -23 0
-7 -2 3 -4 6 -8 -10 11 -12 -23 0
-7 -2 3 -4 6 -8 -10 -11 12 -23 0
-7 -2 3 -4 6 -8 -10 -11 -12 -23 0
-7 -2 3 -4 -6 8 10 11 12 23 0
-7 -2 3 -4 -6 8 10 11 -12 -23 0
-7 -2 3 -4 -6 8 10 -11 12 -23 0
-7 -2 3 -4 -6 8 10 -11 -12 -23 0
-7 -2 3 -4 -6 8 -10 11 12 -23 0
-7 -2 3 -4 -6 8 -10 11 -12 -23 0
-7 -2 3 -4 -6 8 -10 -11 12 -23 0
-7 -2 3 -4 -6 8 -10 -11 -12 -23 0
-7 -2 3 -4 -6 -8 10 11 12 -23 0
-7 -2 3 -4 -6 -8 10 11 -12 -23 0
-7 -2 3 -4 -6 -8 10 -11 12 -23 0
-7 -2 3 -4 -6 -8 10 -11 -12 -23 0
-7 -2 3 -4 -6 -8 -10 11 12 -23 0
-7 -2 3 -4 -6 -8 -10 11 -12 -23 0
-7 -2 3 -4 -6 -8 -10 -11 12 -23 0
-7 -2 3 -4 -6 -8 -10 -11 -12 -23 0
-7 -2 -3 4 6 8 10 11 12 23 0
-7 -2 -3 4 6 8 10 11 -12 23 0
-7 -2 -3 4 6 8 10 -11 12 23 0
-7 -2 -3 4 6 8 10 -11 -12 -23 0
-7 -2 -3 4 6 8 -10 11 12 23 0
-7 -2 -3 4 6 8 -10 11 -12 -23 0
-7 -2 -3 4 6 8 -10 -11 12 -23 0
-7 -2 -3 4 6 8 -10 -11 -12 -23 0
-7 -2 -3 4 6 -8 10 11 12 23 0
-7 -2 -3 4 6 -8 10 11 -12 -23 0
-7 -2 -3 4 6 -8 10 -11 12 -23 0
-7 -2 -3 4 6 -8 10 -11 -12 -23 0
-7 -2 -3 4 6 -8 -10 11 12 -23 0
-7 -2 -3 4 6 -8 -10 11 -12 -23 0
-7 -2 -3 4 6 -8 -10 -11 12 -23 0
-7 -2 -3 4 6 -8 -10 -11 -12 -23 0
-7 -2 -3 4 -6 8 10 11 12 23 0
-7 -2 -3 4 -6 8 10 11 -12 -23 0
-7 -2 -3 4 -6 8 10 -11 12 -23 0
-7 -2 -3 4 -6 8 10 -11 -12 -23 0
-7 -2 -3 4 -6 8 -10 11 12 -23 0
-7 -2 -3 4 -6 8 -10 11 -12 -23 0
-7 -2 -3 4 -6 8 -10 -11 12 -23 0
-7 -2 -3 4 -6 8 -10 -11 -12 -23 0
-7 -2 -3 4 -6 -8 10 11 12 -23 0
-7 -2 -3 4 -6 -8 10 11 -12 -23 0
-7 -2 -3 4 -6 -8 10 -11 12 -23 0
-7 -2 -3 4 -6 -8 10 -11 -12 -23 0
-7 -2 -3 4 -6 -8 -10 11 12 -23 0
-7 -2 -3 4 -6 -8 -10 11 -12 -23 0
-7 -2 -3 4 -6 -8 -10 -11 12 -23 0
-7 -2 -3 4 -6 -8 -10 -11 -12 -23 0
-7 -2 -3 -4 6 8 10 11 12 23 0
-7 -2 -3 -4 6 8 10 11 -12 -23 0
-7 -2 -3 -4 6 8 10 -11 12 -23 0
-7 -2 -3 -4 6 8 10 -11 -12 -23 0
-7 -2 -3 -4 6 8 -10 11 12 -23 0
-7 -2 -3 -4 6 8 -10 11 -12 -23 0
-7 -2 -3 -4 6 8 -10 -11 12 -23 0
-7 -2 -3 -4 6 8 -10 -11 -12 -23 0
-7 -2 -3 -4 6 -8 10 11 12 -23 0
-7 -2 -3 -4 6 -8 10 11 -12 -23 0
-7 -2 -3 -4 6 -8 10 -11 12 -23 0
-7 -2 -3 -4 6 -8 10 -11 -12 -23 0
-7 -2 -3 -4 6 -8 -10 11 12 -23 0
-7 -2 -3 -4 6 -8 -10 11 -12 -23 0
-7 -2 -3 -4 6 -8 -10 -11 12 -23 0
-7 -2 -3 -4 6 -8 -10 -11 -12 -23 0
-7 -2 -3 -4 -6 8 10 11 12 -23 0
-7 -2 -3 -4 -6 8 10 11 -12 -23 0
-7 -2 -3 -4 -6 8 10 -11 12 -23 0
-7 -2 -3 -4 -6 8 10 -11 -12 -23 0
-7 -2 -3 -4 -6 8 -10 11 12 -23 0
-7 -2 -3 -4 -6 8 -10 11 -12 -23 0
-7 -2 -3 -4 -6 8 -10 -11 12 -23 0
-7 -2 -3 -4 -6 8 -10 -11 -12 -23 0
-7 -2 -3 -4 -6 -8 10 11 12 -23 0
-7 -2 -3 -4 -6 -8 10 11 -12 -23 0
-7 -2 -3 -4 -6 -8 10 -11 12 -23 0
-7 -2 -3 -4 -6 -8 10 -11 -12 -23 0
-7 -2 -3 -4 -6 -8 -10 11 12 -23 0
-7 -2 -3 -4 -6 -8 -10 11 -12 -23 0
-7 -2 -3 -4 -6 -8 -10 -11 12 -23 0
-7 -2 -3 -4 -6 -8 -10 -11 -12 -23 0
8 3 4 1 7 5 11 12 9 -24 0
8 3 4 1 7 5 11 12 -9 -24 0
8 3 4 1 7 5 11 -12 9 -24 0
8 3 4 1 7 5 11 -12 -9 -24 0
8 3 4 1 7 5 -11 12 9 -24 0
8 3 4 1 7 5 -11 12 -9 -24 0
8 3 4 1 7 5 -11 -12 9 -24 0
8 3 4 1 7 5 -11 -12 -9 24 0
8 3 4 1 7 -5 11 12 9 -24 0
8 3 4 1 7 -5 11 12 -9 -24 0
8 3 4 1 7 -5 11 -12 9 -24 0
8 3 4 1 7 -5 11 -12 -9 24 0
8 3 4 1 7 -5 -11 12 9 -24 0
8 3 4 1 7 -5 -11 12 -9 24 0
8 3 4 1 7 -5 -11 -12 9 24 0
8 3 4 1 7 -5 -11 -12 -9 -24 0
8 3 4 1 -7 5 11 12 9 -24 0
8 3 4 1 -7 5 11 12 -9 -24 0
8 3 4 1 -7 5 11 -12 9 -24 0
8 3 4 1 -7 5 11 -12 -9 24 0
8 3 4 1 -7 5 -11 12 9 -24 0
8 3 4 1 -7 5 -11 12 -9 24 0
8 3 4 1 -7 5 -11 -12 9 24 0
8 3 4 1 -7 5 -11 -12 -9 -24 0
8 3 4 1 -7 -5 11 12 9 -24 0
8 3 4 1 -7 -5 11 12 -9 24 0
8 3 4 1 -7 -5 11 -12 9 24 0
8 3 4 1 -7 -5 11 -12 -9 -24 0
8 3 4 1 -7 -5 -11 12 9 24 0
8 3 4 1 -7 -5 -11 12 -9 -24 0
8 3 4 1 -7 -5 -11 -12 9 -24 0
8 3 4 1 -7 -5 -11 -12 -9 -24 0
8 3 4 -1 7 5 11 12 9 -24 0
8 3 4 -1 7 5 11 12 -9 -24 0
8 3 4 -1 7 5 11 -12 9 -24 0
8 3 4 -1 7 5 11 -12 -9 24 0
8 3 4 -1 7 5 -11 12 9 -24 0
8 3 4 -1 7 5 -11 12 -9 24 0
8 3 4 -1 7 5 -11 -12 9 24 0
8 3 4 -1 7 5 -11 -12 -9 -24 0
8 3 4 -1 7 -5 11 12 9 -24 0
8 3 4 -1 7 -5 11 12 -9 24 0
8 3 4 -1 7 -5 11 -12 9 24 0
8 3 4 -1 7 -5 11 -12 -9 -24 0
8 3 4 -1 7 -5 -11 12 9 24 0
8 3 4 -1 7 -5 -11 12 -9 -24 0
8 3 4 -1 7 -5 -11 -12 9 -24 0
8 3 4 -1 7 -5 -11 -12 -9 -24 0
8 3 4 -1 -7 5 11 12 9 -24 0
8 3 4 -1 -7 5 11 12 -9 24 0
8 3 4 -1 -7 5 11 -12 9 24 0
8 3 4 -1 -7 5 11 -12 -9 -24 0
8 3 4 -1 -7 5 -11 12 9 24 0
8 3 4 -1 -7 5 -11 12 -9 -24 0
8 3 4 -1 -7 5 -11 -12 9 -24 0
8 3 4 -1 -7 5 -11 -12 -9 -24 0
8 3 4 -1 -7 -5 11 12 9 24 0
8 3 4 -1 -7 -5 11 12 -9 -24 0
8 3 4 -1 -7 -5 11 -12 9 -24 0
8 3 4 -1 -7 -5 11 -12 -9 -24 0
8 3 4 -1 -7 -5 -11 12 9 -24 0
8 3 4 -1 -7 -5 -11 12 -9 -24 0
8 3 4 -1 -7 -5 -11 -12 9 -24 0
8 3 4 -1 -7 -5 -11 -12 -9 -24 0
8 3 -4 1 7 5 11 12 9 -24 0
8 3 -4 1 7 5 11 12 -9 -24 0
8 3 -4 1 7 5 11 -12 9 -24 0
8 3 -4 1 7 5 11 -12 -9 24 0
8 3 -4 1 7 5 -11 12 9 -24 0
8 3 -4 1 7 5 -11 12 -9 24 0
8 3 -4 1 7 5 -11 -12 9 24 0
8 3 -4 1 7 5 -11 -12 -9 -24 0
8 3 -4 1 7 -5 11 12 9 -24 0
8 3 -4 1 7 -5 11 12 -9 24 0
8 3 -4 1 7 -5 11 -12 9 24 0
8 3 -4 1 7 -5 11 -12 -9 -24 0
8 3 -4 1 7 -5 -11 12 9 24 0
8 3 -4 1 7 -5 -11 12 -9 -24 0
8 3 -4 1 7 -5 -11 -12 9 -24 0
8 3 -4 1 7 -5 -11 -12 -9 -24 0
8 3 -4 1 -7 5 11 12 9 -24 0
8 3 -4 1 -7 5 11 12 -9 24 0
8 3 -4 1 -7 5 11 -12 9 24 0
8 3 -4 1 -7 5 11 -12 -9 -24 0
8 3 -4 1 -7 5 -11 12 9 24 0
8 3 -4 1 -7 5 -11 12 -9 -24 0
8 3 -4 1 -7 5 -11 -12 9 -24 0
8 3 -4 1 -7 5 -11 -12 -9 -24 0
8 3 -4 1 -7 -5 11 12 9 24 0
8 3 -4 1 -7 -5 11 12 -9 -24 0
8 3 -4 1 -7 -5 11 -12 9 -24 0
8 3 -4 1 -7 -5 11 -12 -9 -24 0
8 3 -4 1 -7 -5 -11 12 9 -24 0
8 3 -4 1 -7 -5 -11 12 -9 -24 0
8 3 -4 1 -7 -5 -11 -12 9 -24 0
8 3 -4 1 -7 -5 -11 -12 -9 -24 0
8 3 -4 -1 7 5 11 12 9 -24 0
8 3 -4 -1 7 5 11 12 -9 24 0
8 3 -4 -1 7 5 11 -12 9 24 0
8 3 -4 -1 7 5 11 -12 -9 -24 0
8 3 -4 -1 7 5 -11 12 9 24 0
8 3 -4 -1 7 5 -11 12 -9 -24 0
8 3 -4 -1 7 5 -11 -12 9 -24 0
8 3 -4 -1 7 5 -11 -12 -9 -24 0
8 3 -4 -1 7 -5 11 12 9 24 0
8 3 -4 -1 7 -5 11 12 -9 -24 0
8 3 -4 -1 7 -5 11 -12 9 -24 0
8 3 -4 -1 7 -5 11 -12 -9 -24 0
8 3 -4 -1 7 -5 -11 12 9 -24 0
8 3 -4 -1 7 -5 -11 12 -9 -24 0
8 3 -4 -1 7 -5 -11 -12 9 -24 0
8 3 -4 -1 7 -5 -11 -12 -9 -24 0
8 3 -4 -1 -7 5 11 12 9 24 0
8 3 -4 -1 -7 5 11 12 -9 -24 0
8 3 -4 -1 -7 5 11 -12 9 -24 0
8 3 -4 -1 -7 5 11 -12 -9 -24 0
8 3 -4 -1 -7 5 -11 12 9 -24 0
8 3 -4 -1 -7 5 -11 12 -9 -24 0
8 3 -4 -1 -7 5 -11 -12 9 -24 0
8 3 -4 -1 -7 5 -11 -12 -9 -24 0
8 3 -4 -1 -7 -5 11 12 9 -24 0
8 3 -4 -1 -7 -5 11 12 -9 -24 0
8 3 -4 -1 -7 -5 11 -12 9 -24 0
8 3 -4 -1 -7 -5 11 -12 -9 -24 0
8 3 -4 -1 -7 -5 -11 12 9 -24 0
8 3 -4 -1 -7 -5 -11 12 -9 -24 0
8 3 -4 -1 -7 -5 -11 -12 9 -24 0
8 3 -4 -1 -7 -5 -11 -12 -9 -24 0
8 -3 4 1 7 5 11 12 9 -24 0
8 -3 4 1 7 5 11 12 -9 -24 0
8 -3 4 1 7 5 11 -12 9 -24 0
8 -3 4 1 7 5 11 -12 -9 24 0
8 -3 4 1 7 5 -11 12 9 -24 0
8 -3 4 1 7 5 -11 12 -9 24 0
8 -3 4 1 7 5 -11 -12 9 24 0
8 -3 4 1 7 5 -11 -12 -9 -24 0
8 -3 4 1 7 -5 11 12 9 -24 0
8 -3 4 1 7 -5 11 12 -9 24 0
8 -3 4 1 7 -5 11 -12 9 24 0
8 -3 4 1 7 -5 11 -12 -9 -24 0
8 -3 4 1 7 -5 -11 12 9 24 0
8 -3 4 1 7 -5 -11 12 -9 -24 0
8 -3 4 1 7 -5 -11 -12 9 -24 0
8 -3 4 1 7 -5 -11 -12 -9 -24 0
8 -3 4 1 -7 5 11 12 9 -24 0
8 -3 4 1 -7 5 11 12 -9 24 0
8 -3 4 1 -7 5 11 -12 9 24 0
8 -3 4 1 -7 5 11 -12 -9 -24 0
8 -3 4 1 -7 5 -11 12 9 24 0
8 -3 4 1 -7 5 -11 12 -9 -24 0
8 -3 4 1 -7 5 -11 -12 9 -24 0
8 -3 4 1 -7 5 -11 -12 -9 -24 0
8 -3 4 1 -7 -5 11 12 9 24 0
8 -3 4 1 -7 -5 11 12 -9 -24 0
8 -3 4 1 -7 -5 11 -12 9 -24 0
8 -3 4 1 -7 -5 11 -12 -9 -24 0
8 -3 4 1 -7 -5 -11 12 9 -24 0
8 -3 4 1 -7 -5 -11 12 -9 -24 0
8 -3 4 1 -7 -5 -11 -12 9 -24 0
8 -3 4 1 -7 -5 -11 -12 -9 -24 0
8 -3 4 -1 7 5 11 12 9 -24 0
8 -3 4 -1 7 5 11 12 -9 24 0
8 -3 4 -1 7 5 11 -12 9 24 0
8 -3 4 -1 7 5 11 -12 -9 -24 0
8 -3 4 -1 7 5 -11 12 9 24 0
8 -3 4 -1 7 5 -11 12 -9 -24 0
8 -3 4 -1 7 5 -11 -12 9 -24 0
8 -3 4 -1 7 5 -11 -12 -9 -24 0
8 -3 4 -1 7 -5 11 12 9 24 0
8 -3 4 -1 7 -5 11 12 -9 -24 0
8 -3 4 -1 7 -5 11 -12 9 -24 0
8 -3 4 -1 7 -5 11 -12 -9 -24 0
8 -3 4 -1 7 -5 -11 12 9 -24 0
8 -3 4 -1 7 -5 -11 12 -9 -24 0
8 -3 4 -1 7 -5 -11 -12 9 -24 0
8 -3 4 -1 7 -5 -11 -12 -9 -24 0
8 -3 4 -1 -7 5 11 12 9 24 0
8 -3 4 -1 -7 5 11 12 -9 -24 0
8 -3 4 -1 -7 5 11 -12 9 -24 0
8 -3 4 -1 -7 5 11 -12 -9 -24 0
8 -3 4 -1 -7 5 -11 12 9 -24 0
8 -3 4 -1 -7 5 -11 12 -9 -24 0
8 -3 4 -1 -7 5 -11 -12 9 -24 0
8 -3 4 -1 -7 5 -11 -12 -9 -24 0
8 -3 4 -1 -7 -5 11 12 9 -24 0
8 -3 4 -1 -7 -5 11 12 -9 -24 0
8 -3 4 -1 -7 -5 11 -12 9 -24 0
8 -3 4 -1 -7 -5 11 -12 -9 -24 0
8 -3 4 -1 -7 -5 -11 12 9 -24 0
8 -3 4 -1 -7 -5 -11 12 -9 -24 0
8 -3 4 -1 -7 -5 -11 -12 9 -24 0
8 -3 4 -1 -7 -5 -11 -12 -9 -24 0
8 -3 -4 1 7 5 11 12 9 -24 0
8 -3 -4 1 7 5 11 12 -9 24 0
8 -3 -4 1 7 5 11 -12 9 24 0
8 -3 -4 1 7 5 11 -12 -9 -24 0
8 -3 -4 1 7 5 -11 12 9 24 0
8 -3 -4 1 7 5 -11 12 -9 -24 0
8 -3 -4 1 7 5 -11 -12 9 -24 0
8 -3 -4 1 7 5 -11 -12 -9 -24 0
8 -3 -4 1 7 -5 11 12 9 24 0
8 -3 -4 1 7 -5 11 12 -9 -24 0
8 -3 -4 1 7 -5 11 -12 9 -24 0
8 -3 -4 1 7 -5 11 -12 -9 -24 0
8 -3 -4 1 7 -5 -11 12 9 -24 0
8 -3 -4 1 7 -5 -11 12 -9 -24 0
8 -3 -4 1 7 -5 -11 -12 9 -24 0
8 -3 -4 1 7 -5 -11 -12 -9 -24 0
8 -3 -4 1 -7 5 11 12 9 24 0
8 -3 -4 1 -7 5 11 12 -9 -24 0
8 -3 -4 1 -7 5 11 -12 9 -24 0
8 -3 -4 1 -7 5 11 -12 -9 -24 0
8 -3 -4 1 -7 5 -11 12 9 -24 0
8 -3 -4 1 -7 5 -11 12 -9 -24 0
8 -3 -4 1 -7 5 -11 -12 9 -24 0
8 -3 -4 1 -7 5 -11 -12 -9 -24 0
8 -3 -4 1 -7 -5 11 12 9 -24 0
8 -3 -4 1 -7 -5 11 12 -9 -24 0
8 -3 -4 1 -7 -5 11 -12 9 -24 0
8 -3 -4 1 -7 -5 11 -12 -9 -24 0
8 -3 -4 1 -7 -5 -11 12 9 -24 0
8 -3 -4 1 -7 -5 -11 12 -9 -24 0
8 -3 -4 1 -7 -5 -11 -12 9 -24 0
8 -3 -4 1 -7 -5 -11 -12 -9 -24 0
8 -3 -4 -1 7 5 11 12 9 24 0
8 -3 -4 -1 7 5 11 12 -9 -24 0
8 -3 -4 -1 7 5 11 -12 9 -24 0
8 -3 -4 -1 7 5 11 -12 -9 -24 0
8 -3 -4 -1 7 5 -11 12 9 -24 0
8 -3 -4 -1 7 5 -11 12 -9 -24 0
8 -3 -4 -1 7 5 -11 -12 9 -24 0
8 -3 -4 -1 7 5 -11 -12 -9 -24 0
8 -3 -4 -1 7 -5 11 12 9 -24 0
8 -3 -4 -1 7 -5 11 12 -9 -24 0
8 -3 -4 -1 7 -5 11 -12 9 -24 0
8 -3 -4 -1 7 -5 11 -12 -9 -24 0
8 -3 -4 -1 7 -5 -11 12 9 -24 0
8 -3 -4 -1 7 -5 -11 12 -9 -24 0
8 -3 -4 -1 7 -5 -11 -12 9 -24 0
8 -3 -4 -1 7 -5 -11 -12 -9 -24 0
8 -3 -4 -1 -7 5 11 12 9 -24 0
8 -3 -4 -1 -7 5 11 12 -9 -24 0
8 -3 -4 -1 -7 5 11 -12 9 -24 0
8 -3 -4 -1 -7 5 11 -12 -9 -24 0
8 -3 -4 -1 -7 5 -11 12 9 -24 0
8 -3 -4 -1 -7 5 -11 12 -9 -24 0
8 -3 -4 -1 -7 5 -11 -12 9 -24 0
8 -3 -4 -1 -7 5 -11 -12 -9 -24 0
8 -3 -4 -1 -7 -5 11 12 9 -24 0
8 -3 -4 -1 -7 -5 11 12 -9 -24 0
8 -3 -4 -1 -7 -5 11 -12 9 -24 0
8 -3 -4 -1 -7 -5 11 -12 -9 -24 0
8 -3 -4 -1 -7 -5 -11 12 9 -24 0
8 -3 -4 -1 -7 -5 -11 12 -9 -24 0
8 -3 -4 -1 -7 -5 -11 -12 9 -24 0
8 -3 -4 -1 -7 -5 -11 -12 -9 -24 0
-8 3 4 1 7 5 11 12 9 -24 0
-8 3 4 1 7 5 11 12 -9 -24 0
-8 3 4 1 7 5 11 -12 9 -24 0
-8 3 4 1 7 5 11 -12 -9 24 0
-8 3 4 1 7 5 -11 12 9 -24 0
-8 3 4 1 7 5 -11 12 -9 24 0
-8 3 4 1 7 5 -11 -12 9 24 0
-8 3 4 1 7 5 -11 -12 -9 24 0
-8 3 4 1 7 -5 11 12 9 -24 0
-8 3 4 1 7 -5 11 12 -9 24 0
-8 3 4 1 7 -5 11 -12 9 24 0
-8 3 4 1 7 -5 11 -12 -9 24 0
-8 3 4 1 7 -5 -11 12 9 24 0
-8 3 4 1 7 -5 -11 12 -9 24 0
-8 3 4 1 7 -5 -11 -12 9 24 0
-8 3 4 1 7 -5 -11 -12 -9 -24 0
-8 3 4 1 -7 5 11 12 9 -24 0
-8 3 4 1 -7 5 11 12 -9 24 0
-8 3 4 1 -7 5 11 -12 9 24 0
-8 3 4 1 -7 5 11 -12 -9 24 0
-8 3 4 1 -7 5 -11 12 9 24 0
-8 3 4 1 -7 5 -11 12 -9 24 0
-8 3 4 1 -7 5 -11 -12 9 24 0
-8 3 4 1 -7 5 -11 -12 -9 -24 0
-8 3 4 1 -7 -5 11 12 9 24 0
-8 3 4 1 -7 -5 11 12 -9 24 0
-8 3 4 1 -7 -5 11 -12 9 24 0
-8 3 4 1 -7 -5 11 -12 -9 -24 0
-8 3 4 1 -7 -5 -11 12 9 24 0
-8 3 4 1 -7 -5 -11 12 -9 -24 0
-8 3 4 1 -7 -5 -11 -12 9 -24 0
-8 3 4 1 -7 -5 -11 -12 -9 -24 0
-8 3 4 -1 7 5 11 12 9 -24 0
-8 3 4 -1 7 5 11 12 -9 24 0
-8 3 4 -1 7 5 11 -12 9 24 0
-8 3 4 -1 7 5 11 -12 -9 24 0
-8 3 4 -1 7 5 -11 12 9 24 0
-8 3 4 -1 7 5 -11 12 -9 24 0
-8 3 4 -1 7 5 -11 -12 9 24 0
-8 3 4 -1 7 5 -11 -12 -9 -24 0
-8 3 4 -1 7 -5 11 12 9 24 0
-8 3 4 -1 7 -5 11 12 -9 24 0
-8 3 4 -1 7 -5 11 -12 9 24 0
-8 3 4 -1 7 -5 11 -12 -9 -24 0
-8 3 4 -1 7 -5 -11 12 9 24 0
-8 3 4 -1 7 -5 -11 12 -9 -24 0
-8 3 4 -1 7 -5 -11 -12 9 -24 0
-8 3 4 -1 7 -5 -11 -12 -9 -24 0
-8 3 4 -1 -7 5 11 12 9 24 0
-8 3 4 -1 -7 5 11 12 -9 24 0
-8 3 4 -1 -7 5 11 -12 9 24 0
-8 3 4 -1 -7 5 11 -12 -9 -24 0
-8 3 4 -1 -7 5 -11 12 9 24 0
-8 3 4 -1 -7 5 -11 12 -9 -24 0
-8 3 4 -1 -7 5 -11 -12 9 -24 0
-8 3 4 -1 -7 5 -11 -12 -9 -24 0
-8 3 4 -1 -7 -5 11 12 9 24 0
-8 3 4 -1 -7 -5 11 12 -9 -24 0
-8 3 4 -1 -7 -5 11 -12 9 -24 0
-8 3 4 -1 -7 -5 11 -12 -9 -24 0
-8 3 4 -1 -7 -5 -11 12 9 -24 0
-8 3 4 -1 -7 -5 -11 12 -9 -24 0
-8 3 4 -1 -7 -5 -11 -12 9 -24 0
-8 3 4 -1 -7 -5 -11 -12 -9 -24 0
-8 3 -4 1 7 5 11 12 9 -24 0
-8 3 -4 1 7 5 11 12 -9 24 0
-8 3 -4 1 7 5 11 -12 9 24 0
-8 3 -4 1 7 5 11 -12 -9 24 0
-8 3 -4 1 7 5 -11 12 9 24 0
-8 3 -4 1 7 5 -11 12 -9 24 0
-8 3 -4 1 7 5 -11 -12 9 24 0
-8 3 -4 1 7 5 -11 -12 -9 -24 0
-8 3 -4 1 7 -5 11 12 9 24 0
-8 3 -4 1 7 -5 11 12 -9 24 0
-8 3 -4 1 7 -5 11 -12 9 24 0
-8 3 -4 1 7 -5 11 -12 -9 -24 0
-8 3 -4 1 7 -5 -11 12 9 24 0
-8 3 -4 1 7 -5 -11 12 -9 -24 0
-8 3 -4 1 7 -5 -11 -12 9 -24 0
-8 3 -4 1 7 -5 -11 -12 -9 -24 0
-8 3 -4 1 -7 5 11 12 9 24 0
-8 3 -4 1 -7 5 11 12 -9 24 0
-8 3 -4 1 -7 5 11 -12 9 24 0
-8 3 -4 1 -7 5 11 -12 -9 -24 0
-8 3 -4 1 -7 5 -11 12 9 24 0
-8 3 -4 1 -7 5 -11 12 -9 -24 0
-8 3 -4 1 -7 5 -11 -12 9 -24 0
-8 3 -4 1 -7 5 -11 -12 -9 -24 0
-8 3 -4 1 -7 -5 11 12 9 24 0
-8 3 -4 1 -7 -5 11 12 -9 -24 0
-8 3 -4 1 -7 -5 11 -12 9 -24 0
-8 3 -4 1 -7 -5 11 -12 -9 -24 0
-8 3 -4 1 -7 -5 -11 12 9 -24 0
-8 3 -4 1 -7 -5 -11 12 -9 -24 0
-8 3 -4 1 -7 -5 -11 -12 9 -24 0
-8 3 -4 1 -7 -5 -11 -12 -9 -24 0
-8 3 -4 -1 7 5 11 12 9 24 0
-8 3 -4 -1 7 5 11 12 -9 24 0
-8 3 -4 -1 7 5 11 -12 9 24 0
-8 3 -4 -1 7 5 11 -12 -9 -24 0
-8 3 -4 -1 7 5 -11 12 9 24 0
-8 3 -4 -1 7 5 -11 12 -9 -24 0
-8 3 -4 -1 7 5 -11 -12 9 -24 0
-8 3 -4 -1 7 5 -11 -12 -9 -24 0
-8 3 -4 -1 7 -5 11 12 9 24 0
-8 3 -4 -1 7 -5 11 12 -9 -24 0
-8 3 -4 -1 7 -5 11 -12 9 -24 0
-8 3 -4 -1 7 -5 11 -12 -9 -24 0
-8 3 -4 -1 7 -5 -11 12 9 -24 0
-8 3 -4 -1 7 -5 -11 12 -9 -24 0
-8 3 -4 -1 7 -5 -11 -12 9 -24 0
-8 3 -4 -1 7 -5 -11 -12 -9 -24 0
-8 3 -4 -1 -7 5 11 12 9 24 0
-8 3 -4 -1 -7 5 11 12 -9 -24 0
-8 3 -4 -1 -7 5 11 -12 9 -24 0
-8 3 -4 -1 -7 5 11 -12 -9 -24 0
-8 3 -4 -1 -7 5 -11 12 9 -24 0
-8 3 -4 -1 -7 5 -11 12 -9 -24 0
-8 3 -4 -1 -7 5 -11 -12 9 -24 0
-8 3 -4 -1 -7 5 -11 -12 -9 -24 0
-8 3 -4 -1 -7 -5 11 12 9 -24 0
-8 3 -4 -1 -7 -5 11 12 -9 -24 0
-8 3 -4 -1 -7 -5 11 -12 9 -24 0
-8 3 -4 -1 -7 -5 11 -12 -9 -24 0
-8 3 -4 -1 -7 -5 -11 12 9 -24 0
-8 3 -4 -1 -7 -5 -11 12 -9 -24 0
-8 3 -4 -1 -7 -5 -11 -12 9 -24 0
-8 3 -4 -1 -7 -5 -11 -12 -9 -24 0
-8 -3 4 1 7 5 11 12 9 -24 0
-8 -3 4 1 7 5 11 12 -9 24 0
-8 -3 4 1 7 5 11 -12 9 24 0
-8 -3 4 1 7 5 11 -12 -9 24 0
-8 -3 4 1 7 5 -11 12 9 24 0
-8 -3 4 1 7 5 -11 12 -9 24 0
-8 -3 4 1 7 5 -11 -12 9 24 0
-8 -3 4 1 7 5 -11 -12 -9 -24 0
-8 -3 4 1 7 -5 11 12 9 24 0
-8 -3 4 1 7 -5 11 12 -9 24 0
-8 -3 4 1 7 -5 11 -12 9 24 0
-8 -3 4 1 7 -5 11 -12 -9 -24 0
-8 -3 4 1 7 -5 -11 12 9 24 0
-8 -3 4 1 7 -5 -11 12 -9 -24 0
-8 -3 4 1 7 -5 -11 -12 9 -24 0
-8 -3 4 1 7 -5 -11 -12 -9 -24 0
-8 -3 4 1 -7 5 11 12 9 24 0
-8 -3 4 1 -7 5 11 12 -9 24 0
-8 -3 4 1 -7 5 11 -12 9 24 0
-8 -3 4 1 -7 5 11 -12 -9 -24 0
-8 -3 4 1 -7 5 -11 12 9 24 0
-8 -3 4 1 -7 5 -11 12 -9 -24 0
-8 -3 4 1 -7 5 -11 -12 9 -24 0
-8 -3 4 1 -7 5 -11 -12 -9 -24 0
-8 -3 4 1 -7 -5 11 12 9 24 0
-8 -3 4 1 -7 -5 11 12 -9 -24 0
-8 -3 4 1 -7 -5 11 -12 9 -24 0
-8 -3 4 1 -7 -5 11 -12 -9 -24 0
-8 -3 4 1 -7 -5 -11 12 9 -24 0
-8 -3 4 1 -7 -5 -11 12 -9 -24 0
-8 -3 4 1 -7 -5 -11 -12 9 -24 0
-8 -3 4 1 -7 -5 -11 -12 -9 -24 0
-8 -3 4 -1 7 5 11 12 9 24 0
-8 -3 4 -1 7 5 11 12 -9 24 0
-8 -3 4 -1 7 5 11 -12 9 24 0
-8 -3 4 -1 7 5 11 -12 -9 -24 0
-8 -3 4 -1 7 5 -11 12 9 24 0
-8 -3 4 -1 7 5 -11 12 -9 -24 0
-8 -3 4 -1 7 5 -11 -12 9 -24 0
-8 -3 4 -1 7 5 -11 -12 -9 -24 0
-8 -3 4 -1 7 -5 11 12 9 24 0
-8 -3 4 -1 7 -5 11 12 -9 -24 0
-8 -3 4 -1 7 -5 11 -12 9 -24 0
-8 -3 4 -1 7 -5 11 -12 -9 -24 0
-8 -3 4 -1 7 -5 -11 12 9 -24 0
-8 -3 4 -1 7 -5 -11 12 -9 -24 0
-8 -3 4 -1 7 -5 -11 -12 9 -24 0
-8 -3 4 -1 7 -5 -11 -12 -9 -24 0
-8 -3 4 -1 -7 5 11 12 9 24 0
-8 -3 4 -1 -7 5 11 12 -9 -24 0
-8 -3 4 -1 -7 5 11 -12 9 -24 0
-8 -3 4 -1 -7 5 11 -12 -9 -24 0
-8 -3 4 -1 -7 5 -11 12 9 -24 0
-8 -3 4 -1 -7 5 -11 12 -9 -24 0
-8 -3 4 -1 -7 5 -11 -12 9 -24 0
-8 -3 4 -1 -7 5 -11 -12 -9 -24 0
-8 -3 4 -1 -7 -5 11 12 9 -24 0
-8 -3 4 -1 -7 -5 11 12 -9 -24 0
-8 -3 4 -1 -7 -5 11 -12 9 -24 0
-8 -3 4 -1 -7 -5 11 -12 -9 -24 0
-8 -3 4 -1 -7 -5 -11 12 9 -24 0
-8 -3 4 -1 -7 -5 -11 12 -9 -24 0
-8 -3 4 -1 -7 -5 -11 -12 9 -24 0
-8 -3 4 -1 -7 -5 -11 -12 -9 -24 0
-8 -3 -4 1 7 5 11 12 9 24 0
-8 -3 -4 1 7 5 11 12 -9 24 0
-8 -3 -4 1 7 5 11 -12 9 24 0
-8 -3 -4 1 7 5 11 -12 -9 -24 0
-8 -3 -4 1 7 5 -11 12 9 24 0
-8 -3 -4 1 7 5 -11 12 -9 -24 0
-8 -3 -4 1 7 5 -11 -12 9 -24 0
-8 -3 -4 1 7 5 -11 -12 -9 -24 0
-8 -3 -4 1 7 -5 11 12 9 24 0
-8 -3 -4 1 7 -5 11 12 -9 -24 0
-8 -3 -4 1 7 -5 11 -12 9 -24 0
-8 -3 -4 1 7 -5 11 -12 -9 -24 0
-8 -3 -4 1 7 -5 -11 12 9 -24 0
-8 -3 -4 1 7 -5 -11 12 -9 -24 0
-8 -3 -4 1 7 -5 -11 -12 9 -24 0
-8 -3 -4 1 7 -5 -11 -12 -9 -24 0
-8 -3 -4 1 -7 5 11 12 9 24 0
-8 -3 -4 1 -7 5 11 12 -9 -24 0
-8 -3 -4 1 -7 5 11 -12 9 -24 0
-8 -3 -4 1 -7 5 11 -12 -9 -24 0
-8 -3 -4 1 -7 5 -11 12 9 -24 0
-8 -3 -4 1 -7 5 -11 12 -9 -24 0
-8 -3 -4 1 -7 5 -11 -12 9 -24 0
-8 -3 -4 1 -7 5 -11 -12 -9 -24 0
-8 -3 -4 1 -7 -5 11 12 9 -24 0
-8 -3 -4 1 -7 -5 11 12 -9 -24 0
-8 -3 -4 1 -7 -5 11 -12 9 -24 0
-8 -3 -4 1 -7 -5 11 -12 -9 -24 0
-8 -3 -4 1 -7 -5 -11 12 9 -24 0
-8 -3 -4 1 -7 -5 -11 12 -9 -24 0
-8 -3 -4 1 -7 -5 -11 -12 9 -24 0
-8 -3 -4 1 -7 -5 -11 -12 -9 -24 0
-8 -3 -4 -1 7 5 11 12 9 24 0
-8 -3 -4 -1 7 5 11 12 -9 -24 0
-8 -3 -4 -1 7 5 11 -12 9 -24 0
-8 -3 -4 -1 7 5 11 -12 -9 -24 0
-8 -3 -4 -1 7 5 -11 12 9 -24 0
-8 -3 -4 -1 7 5 -11 12 -9 -24 0
-8 -3 -4 -1 7 5 -11 -12 9 -24 0
-8 -3 -4 -1 7 5 -11 -12 -9 -24 0
-8 -3 -4 -1 7 -5 11 12 9 -24 0
-8 -3 -4 -1 7 -5 11 12 -9 -24 0
-8 -3 -4 -1 7 -5 11 -12 9 -24 0
-8 -3 -4 -1 7 -5 11 -12 -9 -24 0
-8 -3 -4 -1 7 -5 -11 12 9 -24 0
-8 -3 -4 -1 7 -5 -11 12 -9 -24 0
-8 -3 -4 -1 7 -5 -11 -12 9 -24 0
-8 -3 -4 -1 7 -5 -11 -12 -9 -24 0
-8 -3 -4 -1 -7 5 11 12 9 -24 0
-8 -3 -4 -1 -7 5 11 12 -9 -24 0
-8 -3 -4 -1 -7 5 11 -12 9 -24 0
-8 -3 -4 -1 -7 5 11 -12 -9 -24 0
-8 -3 -4 -1 -7 5 -11 12 9 -24 0
-8 -3 -4 -1 -7 5 -11 12 -9 -24 0
-8 -3 -4 -1 -7 5 -11 -12 9 -24 0
-8 -3 -4 -1 -7 5 -11 -12 -9 -24 0
-8 -3 -4 -1 -7 -5 11 12 9 -24 0
-8 -3 -4 -1 -7 -5 11 12 -9 -24 0
-8 -3 -4 -1 -7 -5 11 -12 9 -24 0
-8 -3 -4 -1 -7 -5 11 -12 -9 -24 0
-8 -3 -4 -1 -7 -5 -11 12 9 -24 0
-8 -3 -4 -1 -7 -5 -11 12 -9 -24 0
-8 -3 -4 -1 -7 -5 -11 -12 9 -24 0
-8 -3 -4 -1 -7 -5 -11 -12 -9 -24 0
9 8 5 6 12 10 16 13 14 -25 0
9 8 5 6 12 10 16 13 -14 -25 0
9 8 5 6 12 10 16 -13 14 -25 0
9 8 5 6 12 10 16 -13 -14 -25 0
9 8 5 6 12 10 -16 13 14 -25 0
9 8 5 6 12 10 -16 13 -14 -25 0
9 8 5 6 12 10 -16 -13 14 -25 0
9 8 5 6 12 10 -16 -13 -14 25 0
9 8 5 6 12 -10 16 13 14 -25 0
9 8 5 6 12 -10 16 13 -14 -25 0
9 8 5 6 12 -10 16 -13 14 -25 0
9 8 5 6 12 -10 16 -13 -14 25 0
9 8 5 6 12 -10 -16 13 14 -25 0
9 8 5 6 12 -10 -16 13 -14 25 0
9 8 5 6 12 -10 -16 -13 14 25 0
9 8 5 6 12 -10 -16 -13 -14 -25 0
9 8 5 6 -12 10 16 13 14 -25 0
9 8 5 6 -12 10 16 13 -14 -25 0
9 8 5 6 -12 10 16 -13 14 -25 0
9 8 5 6 -12 10 16 -13 -14 25 0
9 8 5 6 -12 10 -16 13 14 -25 0
9 8 5 6 -12 10 -16 13 -14 25 0
9 8 5 6 -12 10 -16 -13 14 25 0
9 8 5 6 -12 10 -16 -13 -14 -25 0
9 8 5 6 -12 -10 16 13 14 -25 0
9 8 5 6 -12 -10 16 13 -14 25 0
9 8 5 6 -12 -10 16 -13 14 25 0
9 8 5 6 -12 -10 16 -13 -14 -25 0
9 8 5 6 -12 -10 -16 13 14 25 0
9 8 5 6 -12 -10 -16 13 -14 -25 0
9 8 5 6 -12 -10 -16 -13 14 -25 0
9 8 5 6 -12 -10 -16 -13 -14 -25 0
9 8 5 -6 12 10 16 13 14 -25 0
9 8 5 -6 12 10 16 13 -14 -25 0
9 8 5 -6 12 10 16 -13 14 -25 0
9 8 5 -6 12 10 16 -13 -14 25 0
9 8 5 -6 12 10 -16 13 14 -25 0
9 8 5 -6 12 10 -16 13 -14 25 0
9 8 5 -6 12 10 -16 -13 14 25 0
9 8 5 -6 12 10 -16 -13 -14 -25 0
9 8 5 -6 12 -10 16 13 14 -25 0
9 8 5 -6 12 -10 16 13 -14 25 0
9 8 5 -6 12 -10 16 -13 14 25 0
9 8 5 -6 12 -10 16 -13 -14 -25 0
9 8 5 -6 12 -10 -16 13 14 25 0
9 8 5 -6 12 -10 -16 13 -14 -25 0
9 8 5 -6 12 -10 -16 -13 14 -25 0
9 8 5 -6 12 -10 -16 -13 -14 -25 0
9 8 5 -6 -12 10 16 13 14 -25 0
9 8 5 -6 -12 10 16 13 -14 25 0
9 8 5 -6 -12 10 16 -13 14 25 0
9 8 5 -6 -12 10 16 -13 -14 -25 0
9 8 5 -6 -12 10 -16 13 14 25 0
9 8 5 -6 -12 10 -16 13 -14 -25 0
9 8 5 -6 -12 10 -16 -13 14 -25 0
9 8 5 -6 -12 10 -16 -13 -14 -25 0
9 8 5 -6 -12 -10 16 13 14 25 0
9 8 5 -6 -12 -10 16 13 -14 -25 0
9 8 5 -6 -12 -10 16 -13 14 -25 0
9 8 5 -6 -12 -10 16 -13 -14 -25 0
9 8 5 -6 -12 -10 -16 13 14 -25 0
9 8 5 -6 -12 -10 -16 13 -14 -25 0
9 8 5 -6 -12 -10 -16 -13 14 -25 0
9 8 5 -6 -12 -10 -16 -13 -14 -25 0
9 8 -5 6 12 10 16 13 14 -25 0
9 8 -5 6 12 10 16 13 -14 -25 0
9 8 -5 6 12 10 16 -13 14 -25 0
9 8 -5 6 12 10 16 -13 -14 25 0
9 8 -5 6 12 10 -16 13 14 -25 0
9 8 -5 6 12 10 -16 13 -14 25 0
9 8 -5 6 12 10 -16 -13 14 25 0
9 8 -5 6 12 10 -16 -13 -14 -25 0
9 8 -5 6 12 -10 16 13 14 -25 0
9 8 -5 6 12 -10 16 13 -14 25 0
9 8 -5 6 12 -10 16 -13 14 25 0
9 8 -5 6 12 -10 16 -13 -14 -25 0
9 8 -5 6 12 -10 -16 13 14 25 0
9 8 -5 6 12 -10 -16 13 -14 -25 0
9 8 -5 6 12 -10 -16 -13 14 -25 0
9 8 -5 6 12 -10 -16 -13 -14 -25 0
9 8 -5 6 -12 10 16 13 14 -25 0
9 8 -5 6 -12 10 16 13 -14 25 0
9 8 -5 6 -12 10 16 -13 14 25 0
9 8 -5 6 -12 10 16 -13 -14 -25 0
9 8 -5 6 -12 10 -16 13 14 25 0
9 8 -5 6 -12 10 -16 13 -14 -25 0
9 8 -5 6 -12 10 -16 -13 14 -25 0
9 8 -5 6 -12 10 -16 -13 -14 -25 0
9 8 -5 6 -12 -10 16 13 14 25 0
9 8 -5 6 -12 -10 16 13 -14 -25 0
9 8 -5 6 -12 -10 16 -13 14 -25 0
9 8 -5 6 -12 -10 16 -13 -14 -25 0
9 8 -5 6 -12 -10 -16 13 14 -25 0
9 8 -5 6 -12 -10 -16 13 -14 -25 0
9 8 -5 6 -12 -10 -16 -13 14 -25 0
9 8 -5 6 -12 -10 -16 -13 -14 -25 0
9 8 -5 -6 12 10 16 13 14 -25 0
9 8 -5 -6 12 10 16 13 -14 25 0
9 8 -5 -6 12 10 16 -13 14 25 0
9 8 -5 -6 12 10 16 -13 -14 -25 0
9 8 -5 -6 12 10 -16 13 14 25 0
9 8 -5 -6 12 10 -16 13 -14 -25 0
9 8 -5 -6 12 10 -16 -13 14 -25 0
9 8 -5 -6 12 10 -16 -13 -14 -25 0
9 8 -5 -6 12 -10 16 13 14 25 0
9 8 -5 -6 12 -10 16 13 -14 -25 0
9 8 -5 -6 12 -10 16 -13 14 -25 0
9 8 -5 -6 12 -10 16 -13 -14 -25 0
9 8 -5 -6 12 -10 -16 13 14 -25 0
9 8 -5 -6 12 -10 -16 13 -14 -25 0
9 8 -5 -6 12 -10 -16 -13 14 -25 0
9 8 -5 -6 12 -10 -16 -13 -14 -25 0
9 8 -5 -6 -12 10 16 13 14 25 0
9 8 -5 -6 -12 10 16 13 -14 -25 0
9 8 -5 -6 -12 10 16 -13 14 -25 0
9 8 -5 -6 -12 10 16 -13 -14 -25 0
9 8 -5 -6 -12 10 -16 13 14 -25 0
9 8 -5 -6 -12 10 -16 13 -14 -25 0
9 8 -5 -6 -12 10 -16 -13 14 -25 0
9 8 -5 -6 -12 10 -16 -13 -14 -25 0
9 8 -5 -6 -12 -10 16 13 14 -25 0
9 8 -5 -6 -12 -10 16 13 -14 -25 0
9 8 -5 -6 -12 -10 16 -13 14 -25 0
9 8 -5 -6 -12 -10 16 -13 -14 -25 0
9 8 -5 -6 -12 -10 -16 13 14 -25 0
9 8 -5 -6 -12 -10 -16 13 -14 -25 0
9 8 -5 -6 -12 -10 -16 -13 14 -25 0
9 8 -5 -6 -12 -10 -16 -13 -14 -25 0
9 -8 5 6 12 10 16 13 14 -25 0
9 -8 5 6 12 10 16 13 -14 -25 0
9 -8 5 6 12 10 16 -13 14 -25 0
9 -8 5 6 12 10 16 -13 -14 25 0
9 -8 5 6 12 10 -16 13 14 -25 0
9 -8 5 6 12 10 -16 13 -14 25 0
9 -8 5 6 12 10 -16 -13 14 25 0
9 -8 5 6 12 10 -16 -13 -14 -25 0
9 -8 5 6 12 -10 16 13 14 -25 0
9 -8 5 6 12 -10 16 13 -14 25 0
9 -8 5 6 12 -10 16 -13 14 25 0
9 -8 5 6 12 -10 16 -13 -14 -25 0
9 -8 5 6 12 -10 -16 13 14 25 0
9 -8 5 6 12 -10 -16 13 -14 -25 0
9 -8 5 6 12 -10 -16 -13 14 -25 0
9 -8 5 6 12 -10 -16 -13 -14 -25 0
9 -8 5 6 -12 10 16 13 14 -25 0
9 -8 5 6 -12 10 16 13 -14 25 0
9 -8 5 6 -12 10 16 -13 14 25 0
9 -8 5 6 -12 10 16 -13 -14 -25 0
9 -8 5 6 -12 10 -16 13 14 25 0
9 -8 5 6 -12 10 -16 13 -14 -25 0
9 -8 5 6 -12 10 -16 -13 14 -25 0
9 -8 5 6 -12 10 -16 -13 -14 -25 0
9 -8 5 6 -12 -10 16 13 14 25 0
9 -8 5 6 -12 -10 16 13 -14 -25 0
9 -8 5 6 -12 -10 16 -13 14 -25 0
9 -8 5 6 -12 -10 16 -13 -14 -25 0
9 -8 5 6 -12 -10 -16 13 14 -25 0
9 -8 5 6 -12 -10 -16 13 -14 -25 0
9 -8 5 6 -12 -10 -16 -13 14 -25 0
9 -8 5 6 -12 -10 -16 -13 -14 -25 0
9 -8 5 -6 12 10 16 13 14 -25 0
9 -8 5 -6 12 10 16 13 -14 25 0
9 -8 5 -6 12 10 16 -13 14 25 0
9 -8 5 -6 12 10 16 -13 -14 -25 0
9 -8 5 -6 12 10 -16 13 14 25 0
9 -8 5 -6 12 10 -16 13 -14 -25 0
9 -8 5 -6 12 10 -16 -13 14 -25 0
9 -8 5 -6 12 10 -16 -13 -14 -25 0
9 -8 5 -6 12 -10 16 13 14 25 0
9 -8 5 -6 12 -10 16 13 -14 -25 0
9 -8 5 -6 12 -10 16 -13 14 -25 0
9 -8 5 -6 12 -10 16 -13 -14 -25 0
9 -8 5 -6 12 -10 -16 13 14 -25 0
9 -8 5 -6 12 -10 -16 13 -14 -25 0
9 -8 5 -6 12 -10 -16 -13 14 -25 0
9 -8 5 -6 12 -10 -16 -13 -14 -25 0
9 -8 5 -6 -12 10 16 13 14 25 0
9 -8 5 -6 -12 10 16 13 -14 -25 0
9 -8 5 -6 -12 10 16 -13 14 -25 0
9 -8 5 -6 -12 10 16 -13 -14 -25 0
9 -8 5 -6 -12 10 -16 13 14 -25 0
9 -8 5 -6 -12 10 -16 13 -14 -25 0
9 -8 5 -6 -12 10 -16 -13 14 -25 0
9 -8 5 -6 -12 10 -16 -13 -14 -25 0
9 -8 5 -6 -12 -10 16 13 14 -25 0
9 -8 5 -6 -12 -10 16 13 -14 -25 0
9 -8 5 -6 -12 -10 16 -13 14 -25 0
9 -8 5 -6 -12 -10 16 -13 -14 -25 0
9 -8 5 -6 -12 -10 -16 13 14 -25 0
9 -8 5 -6 -12 -10 -16 13 -14 -25 0
9 -8 5 -6 -12 -10 -16 -13 14 -25 0
9 -8 5 -6 -12 -10 -16 -13 -14 -25 0
9 -8 -5 6 12 10 16 13 14 -25 0
9 -8 -5 6 12 10 16 13 -14 25 0
9 -8 -5 6 12 10 16 -13 14 25 0
9 -8 -5 6 12 10 16 -13 -14 -25 0
9 -8 -5 6 12 10 -16 13 14 25 0
9 -8 -5 6 12 10 -16 13 -14 -25 0
9 -8 -5 6 12 10 -16 -13 14 -25 0
9 -8 -5 6 12 10 -16 -13 -14 -25 0
9 -8 -5 6 12 -10 16 13 14 25 0
9 -8 -5 6 12 -10 16 13 -14 -25 0
9 -8 -5 6 12 -10 16 -13 14 -25 0
9 -8 -5 6 12 -10 16 -13 -14 -25 0
9 -8 -5 6 12 -10 -16 13 14 -25 0
9 -8 -5 6 12 -10 -16 13 -14 -25 0
9 -8 -5 6 12 -10 -16 -13 14 -25 0
9 -8 -5 6 12 -10 -16 -13 -14 -25 0
9 -8 -5 6 -12 10 16 13 14 25 0
9 -8 -5 6 -12 10 16 13 -14 -25 0
9 -8 -5 6 -12 10 16 -13 14 -25 0
9 -8 -5 6 -12 10 16 -13 -14 -25 0
9 -8 -5 6 -12 10 -16 13 14 -25 0
9 -8 -5 6 -12 10 -16 13 -14 -25 0
9 -8 -5 6 -12 10 -16 -13 14 -25 0
9 -8 -5 6 -12 10 -16 -13 -14 -25 0
9 -8 -5 6 -12 -10 16 13 14 -25 0
9 -8 -5 6 -12 -10 16 13 -14 -25 0
9 -8 -5 6 -12 -10 16 -13 14 -25 0
9 -8 -5 6 -12 -10 16 -13 -14 -25 0
9 -8 -5 6 -12 -10 -16 13 14 -25 0
9 -8 -5 6 -12 -10 -16 13 -14 -25 0
9 -8 -5 6 -12 -10 -16 -13 14 -25 0
9 -8 -5 6 -12 -10 -16 -13 -14 -25 0
9 -8 -5 -6 12 10 16 13 14 25 0
9 -8 -5 -6 12 10 16 13 -14 -25 0
9 -8 -5 -6 12 10 16 -13 14 -25 0
9 -8 -5 -6 12 10 16 -13 -14 -25 0
9 -8 -5 -6 12 10 -16 13 14 -25 0
9 -8 -5 -6 12 10 -16 13 -14 -25 0
9 -8 -5 -6 12 10 -16 -13 14 -25 0
9 -8 -5 -6 12 10 -16 -13 -14 -25 0
9 -8 -5 -6 12 -10 16 13 14 -25 0
9 -8 -5 -6 12 -10 16 13 -14 -25 0
9 -8 -5 -6 12 -10 16 -13 14 -25 0
9 -8 -5 -6 12 -10 16 -13 -14 -25 0
9 -8 -5 -6 12 -10 -16 13 14 -25 0
9 -8 -5 -6 12 -10 -16 13 -14 -25 0
9 -8 -5 -6 12 -10 -16 -13 14 -25 0
9 -8 -5 -6 12 -10 -16 -13 -14 -25 0
9 -8 -5 -6 -12 10 16 13 14 -25 0
9 -8 -5 -6 -12 10 16 13 -14 -25 0
9 -8 -5 -6 -12 10 16 -13 14 -25 0
9 -8 -5 -6 -12 10 16 -13 -14 -25 0
9 -8 -5 -6 -12 10 -16 13 14 -25 0
9 -8 -5 -6 -12 10 -16 13 -14 -25 0
9 -8 -5 -6 -12 10 -16 -13 14 -25 0
9 -8 -5 -6 -12 10 -16 -13 -14 -25 0
9 -8 -5 -6 -12 -10 16 13 14 -25 0
9 -8 -5 -6 -12 -10 16 13 -14 -25 0
9 -8 -5 -6 -12 -10 16 -13 14 -25 0
9 -8 -5 -6 -12 -10 16 -13 -14 -25 0
9 -8 -5 -6 -12 -10 -16 13 14 -25 0
9 -8 -5 -6 -12 -10 -16 13 -14 -25 0
9 -8 -5 -6 -12 -10 -16 -13 14 -25 0
9 -8 -5 -6 -12 -10 -16 -13 -14 -25 0
-9 8 5 6 12 10 16 13 14 -25 0
-9 8 5 6 12 10 16 13 -14 -25 0
-9 8 5 6 12 10 16 -13 14 -25 0
-9 8 5 6 12 10 16 -13 -14 25 0
-9 8 5 6 12 10 -16 13 14 -25 0
-9 8 5 6 12 10 -16 13 -14 25 0
-9 8 5 6 12 10 -16 -13 14 25 0
-9 8 5 6 12 10 -16 -13 -14 25 0
-9 8 5 6 12 -10 16 13 14 -25 0
-9 8 5 6 12 -10 16 13 -14 25 0
-9 8 5 6 12 -10 16 -13 14 25 0
-9 8 5 6 12 -10 16 -13 -14 25 0
-9 8 5 6 12 -10 -16 13 14 25 0
-9 8 5 6 12 -10 -16 13 -14 25 0
-9 8 5 6 12 -10 -16 -13 14 25 0
-9 8 5 6 12 -10 -16 -13 -14 -25 0
-9 8 5 6 -12 10 16 13 14 -25 0
-9 8 5 6 -12 10 16 13 -14 25 0
-9 8 5 6 -12 10 16 -13 14 25 0
-9 8 5 6 -12 10 16 -13 -14 25 0
-9 8 5 6 -12 10 -16 13 14 25 0
-9 8 5 6 -12 10 -16 13 -14 25 0
-9 8 5 6 -12 10 -16 -13 14 25 0
-9 8 5 6 -12 10 -16 -13 -14 -25 0
-9 8 5 6 -12 -10 16 13 14 25 0
-9 8 5 6 -12 -10 16 13 -14 25 0
-9 8 5 6 -12 -10 16 -13 14 25 0
-9 8 5 6 -12 -10 16 -13 -14 -25 0
-9 8 5 6 -12 -10 -16 13 14 25 0
-9 8 5 6 -12 -10 -16 13 -14 -25 0
-9 8 5 6 -12 -10 -16 -13 14 -25 0
-9 8 5 6 -12 -10 -16 -13 -14 -25 0
-9 8 5 -6 12 10 16 13 14 -25 0
-9 8 5 -6 12 10 16 13 -14 25 0
-9 8 5 -6 12 10 16 -13 14 25 0
-9 8 5 -6 12 10 16 -13 -14 25 0
-9 8 5 -6 12 10 -16 13 14 25 0
-9 8 5 -6 12 10 -16 13 -14 25 0
-9 8 5 -6 12 10 -16 -13 14 25 0
-9 8 5 -6 12 10 -16 -13 -14 -25 0
-9 8 5 -6 12 -10 16 13 14 25 0
-9 8 5 -6 12 -10 16 13 -14 25 0
-9 8 5 -6 12 -10 16 -13 14 25 0
-9 8 5 -6 12 -10 16 -13 -14 -25 0
-9 8 5 -6 12 -10 -16 13 14 25 0
-9 8 5 -6 12 -10 -16 13 -14 -25 0
-9 8 5 -6 12 -10 -16 -13 14 -25 0
-9 8 5 -6 12 -10 -16 -13 -14 -25 0
-9 8 5 -6 -12 10 16 13 14 25 0
-9 8 5 -6 -12 10 16 13 -14 25 0
-9 8 5 -6 -12 10 16 -13 14 25 0
-9 8 5 -6 -12 10 16 -13 -14 -25 0
-9 8 5 -6 -12 10 -16 13 14 25 0
-9 8 5 -6 -12 10 -16 13 -14 -25 0
-9 8 5 -6 -12 10 -16 -13 14 -25 0
-9 8 5 -6 -12 10 -16 -13 -14 -25 0
-9 8 5 -6 -12 -10 16 13 14 25 0
-9 8 5 -6 -12 -10 16 13 -14 -25 0
-9 8 5 -6 -12 -10 16 -13 14 -25 0
-9 8 5 -6 -12 -10 16 -13 -14 -25 0
-9 8 5 -6 -12 -10 -16 13 14 -25 0
-9 8 5 -6 -12 -10 -16 13 -14 -25 0
-9 8 5 -6 -12 -10 -16 -13 14 -25 0
-9 8 5 -6 -12 -10 -16 -13 -14 -25 0
-9 8 -5 6 12 10 16 13 14 -25 0
-9 8 -5 6 12 10 16 13 -14 25 0
-9 8 -5 6 12 10 16 -13 14 25 0
-9 8 -5 6 12 10 16 -13 -14 25 0
-9 8 -5 6 12 10 -16 13 14 25 0
-9 8 -5 6 12 10 -16 13 -14 25 0
-9 8 -5 6 12 10 -16 -13 14 25 0
-9 8 -5 6 12 10 -16 -13 -14 -25 0
-9 8 -5 6 12 -10 16 13 14 25 0
-9 8 -5 6 12 -10 16 13 -14 25 0
-9 8 -5 6 12 -10 16 -13 14 25 0
-9 8 -5 6 12 -10 16 -13 -14 -25 0
-9 8 -5 6 12 -10 -16 13 14 25 0
-9 8 -5 6 12 -10 -16 13 -14 -25 0
-9 8 -5 6 12 -10 -16 -13 14 -25 0
-9 8 -5 6 12 -10 -16 -13 -14 -25 0
-9 8 -5 6 -12 10 16 13 14 25 0
-9 8 -5 6 -12 10 16 13 -14 25 0
-9 8 -5 6 -12 10 16 -13 14 25 0
-9 8 -5 6 -12 10 16 -13 -14 -25 0
-9 8 -5 6 -12 10 -16 13 14 25 0
-9 8 -5 6 -12 10 -16 13 -14 -25 0
-9 8 -5 6 -12 10 -16 -13 14 -25 0
-9 8 -5 6 -12 10 -16 -13 -14 -25 0
-9 8 -5 6 -12 -10 16 13 14 25 0
-9 8 -5 6 -12 -10 16 13 -14 -25 0
-9 8 -5 6 -12 -10 16 -13 14 -25 0
-9 8 -5 6 -12 -10 16 -13 -14 -25 0
-9 8 -5 6 -12 -10 -16 13 14 -25 0
-9 8 -5 6 -12 -10 -16 13 -14 -25 0
-9 8 -5 6 -12 -10 -16 -13 14 -25 0
-9 8 -5 6 -12 -10 -16 -13 -14 -25 0
-9 8 -5 -6 12 10 16 13 14 25 0
-9 8 -5 -6 12 10 16 13 -14 25 0
-9 8 -5 -6 12 10 16 -13 14 25 0
-9 8 -5 -6 12 10 16 -13 -14 -25 0
-9 8 -5 -6 12 10 -16 13 14 25 0
-9 8 -5 -6 12 10 -16 13 -14 -25 0
-9 8 -5 -6 12 10 -16 -13 14 -25 0
-9 8 -5 -6 12 10 -16 -13 -14 -25 0
-9 8 -5 -6 12 -10 16 13 14 25 0
-9 8 -5 -6 12 -10 16 13 -14 -25 0
-9 8 -5 -6 12 -10 16 -13 14 -25 0
-9 8 -5 -6 12 -10 16 -13 -14 -25 0
-9 8 -5 -6 12 -10 -16 13 14 -25 0
-9 8 -5 -6 12 -10 -16 13 -14 -25 0
-9 8 -5 -6 12 -10 -16 -13 14 -25 0
-9 8 -5 -6 12 -10 -16 -13 -14 -25 0
-9 8 -5 -6 -12 10 16 13 14 25 0
-9 8 -5 -6 -12 10 16 13 -14 -25 0
-9 8 -5 -6 -12 10 16 -13 14 -25 0
-9 8 -5 -6 -12 10 16 -13 -14 -25 0
-9 8 -5 -6 -12 10 -16 13 14 -25 0
-9 8 -5 -6 -12 10 -16 13 -14 -25 0
-9 8 -5 -6 -12 10 -16 -13 14 -25 0
-9 8 -5 -6 -12 10 -16 -13 -14 -25 0
-9 8 -5 -6 -12 -10 16 13 14 -25 0
-9 8 -5 -6 -12 -10 16 13 -14 -25 0
-9 8 -5 -6 -12 -10 16 -13 14 -25 0
-9 8 -5 -6 -12 -10 16 -13 -14 -25 0
-9 8 -5 -6 -12 -10 -16 13 14 -25 0
-9 8 -5 -6 -12 -10 -16 13 -14 -25 0
-9 8 -5 -6 -12 -10 -16 -13 14 -25 0
-9 8 -5 -6 -12 -10 -16 -13 -14 -25 0
-9 -8 5 6 12 10 16 13 14 -25 0
-9 -8 5 6 12 10 16 13 -14 25 0
-9 -8 5 6 12 10 16 -13 14 25 0
-9 -8 5 6 12 10 16 -13 -14 25 0
-9 -8 5 6 12 10 -16 13 14 25 0
-9 -8 5 6 12 10 -16 13 -14 25 0
-9 -8 5 6 12 10 -16 -13 14 25 0
-9 -8 5 6 12 10 -16 -13 -14 -25 0
-9 -8 5 6 12 -10 16 13 14 25 0
-9 -8 5 6 12 -10 16 13 -14 25 0
-9 -8 5 6 12 -10 16 -13 14 25 0
-9 -8 5 6 12 -10 16 -13 -14 -25 0
-9 -8 5 6 12 -10 -16 13 14 25 0
-9 -8 5 6 12 -10 -16 13 -14 -25 0
-9 -8 5 6 12 -10 -16 -13 14 -25 0
-9 -8 5 6 12 -10 -16 -13 -14 -25 0
-9 -8 5 6 -12 10 16 13 14 25 0
-9 -8 5 6 -12 10 16 13 -14 25 0
-9 -8 5 6 -12 10 16 -13 14 25 0
-9 -8 5 6 -12 10 16 -13 -14 -25 0
-9 -8 5 6 -12 10 -16 13 14 25 0
-9 -8 5 6 -12 10 -16 13 -14 -25 0
-9 -8 5 6 -12 10 -16 -13 14 -25 0
-9 -8 5 6 -12 10 -16 -13 -14 -25 0
-9 -8 5 6 -12 -10 16 13 14 25 0
-9 -8 5 6 -12 -10 16 13 -14 -25 0
-9 -8 5 6 -12 -10 16 -13 14 -25 0
-9 -8 5 6 -12 -10 16 -13 -14 -25 0
-9 -8 5 6 -12 -10 -16 13 14 -25 0
-9 -8 5 6 -12 -10 -16 13 -14 -25 0
-9 -8 5 6 -12 -10 -16 -13 14 -25 0
-9 -8 5 6 -12 -10 -16 -13 -14 -25 0
-9 -8 5 -6 12 10 16 13 14 25 0
-9 -8 5 -6 12 10 16 13 -14 25 0
-9 -8 5 -6 12 10 16 -13 14 25 0
-9 -8 5 -6 12 10 16 -13 -14 -25 0
-9 -8 5 -6 12 10 -16 13 14 25 0
-9 -8 5 -6 12 10 -16 13 -14 -25 0
-9 -8 5 -6 12 10 -16 -13 14 -25 0
-9 -8 5 -6 12 10 -16 -13 -14 -25 0
-9 -8 5 -6 12 -10 16 13 14 25 0
-9 -8 5 -6 12 -10 16 13 -14 -25 0
-9 -8 5 -6 12 -10 16 -13 14 -25 0
-9 -8 5 -6 12 -10 16 -13 -14 -25 0
-9 -8 5 -6 12 -10 -16 13 14 -25 0
-9 -8 5 -6 12 -10 -16 13 -14 -25 0
-9 -8 5 -6 12 -10 -16 -13 14 -25 0
-9 -8 5 -6 12 -10 -16 -13 -14 -25 0
-9 -8 5 -6 -12 10 16 13 14 25 0
-9 -8 5 -6 -12 10 16 13 -14 -25 0
-9 -8 5 -6 -12 10 16 -13 14 -25 0
-9 -8 5 -6 -12 10 16 -13 -14 -25 0
-9 -8 5 -6 -12 10 -16 13 14 -25 0
-9 -8 5 -6 -12 10 -16 13 -14 -25 0
-9 -8 5 -6 -12 10 -16 -13 14 -25 0
-9 -8 5 -6 -12 10 -16 -13 -14 -25 0
-9 -8 5 -6 -12 -10 16 13 14 -25 0
-9 -8 5 -6 -12 -10 16 13 -14 -25 0
-9 -8 5 -6 -12 -10 16 -13 14 -25 0
-9 -8 5 -6 -12 -10 16 -13 -14 -25 0
-9 -8 5 -6 -12 -10 -16 13 14 -25 0
-9 -8 5 -6 -12 -10 -16 13 -14 -25 0
-9 -8 5 -6 -12 -10 -16 -13 14 -25 0
-9 -8 5 -6 -12 -10 -16 -13 -14 -25 0
-9 -8 -5 6 12 10 16 13 14 25 0
-9 -8 -5 6 12 10 16 13 -14 25 0
-9 -8 -5 6 12 10 16 -13 14 25 0
-9 -8 -5 6 12 10 16 -13 -14 -25 0
-9 -8 -5 6 12 10 -16 13 14 25 0
-9 -8 -5 6 12 10 -16 13 -14 -25 0
-9 -8 -5 6 12 10 -16 -13 14 -25 0
-9 -8 -5 6 12 10 -16 -13 -14 -25 0
-9 -8 -5 6 12 -10 16 13 14 25 0
-9 -8 -5 6 12 -10 16 13 -14 -25 0
-9 -8 -5 6 12 -10 16 -13 14 -25 0
-9 -8 -5 6 12 -10 16 -13 -14 -25 0
-9 -8 -5 6 12 -10 -16 13 14 -25 0
-9 -8 -5 6 12 -10 -16 13 -14 -25 0
-9 -8 -5 6 12 -10 -16 -13 14 -25 0
-9 -8 -5 6 12 -10 -16 -13 -14 -25 0
-9 -8 -5 6 -12 10 16 13 14 25 0
-9 -8 -5 6 -12 10 16 13 -14 -25 0
-9 -8 -5 6 -12 10 16 -13 14 -25 0
-9 -8 -5 6 -12 10 16 -13 -14 -25 0
-9 -8 -5 6 -12 10 -16 13 14 -25 0
-9 -8 -5 6 -12 10 -16 13 -14 -25 0
-9 -8 -5 6 -12 10 -16 -13 14 -25 0
-9 -8 -5 6 -12 10 -16 -13 -14 -25 0
-9 -8 -5 6 -12 -10 16 13 14 -25 0
-9 -8 -5 6 -12 -10 16 13 -14 -25 0
-9 -8 -5 6 -12 -10 16 -13 14 -25 0
-9 -8 -5 6 -12 -10 16 -13 -14 -25 0
-9 -8 -5 6 -12 -10 -16 13 14 -25 0
-9 -8 -5 6 -12 -10 -16 13 -14 -25 0
-9 -8 -5 6 -12 -10 -16 -13 14 -25 0
-9 -8 -5 6 -12 -10 -16 -13 -14 -25 0
-9 -8 -5 -6 12 10 16 13 14 25 0
-9 -8 -5 -6 12 10 16 13 -14 -25 0
-9 -8 -5 -6 12 10 16 -13 14 -25 0
-9 -8 -5 -6 12 10 16 -13 -14 -25 0
-9 -8 -5 -6 12 10 -16 13 14 -25 0
-9 -8 -5 -6 12 10 -16 13 -14 -25 0
-9 -8 -5 -6 12 10 -16 -13 14 -25 0
-9 -8 -5 -6 12 10 -16 -13 -14 -25 0
-9 -8 -5 -6 12 -10 16 13 14 -25 0
-9 -8 -5 -6 12 -10 16 13 -14 -25 0
-9 -8 -5 -6 12 -10 16 -13 14 -25 0
-9 -8 -5 -6 12 -10 16 -13 -14 -25 0
-9 -8 -5 -6 12 -10 -16 13 14 -25 0
-9 -8 -5 -6 12 -10 -16 13 -14 -25 0
-9 -8 -5 -6 12 -10 -16 -13 14 -25 0
-9 -8 -5 -6 12 -10 -16 -13 -14 -25 0
-9 -8 -5 -6 -12 10 16 13 14 -25 0
-9 -8 -5 -6 -12 10 16 13 -14 -25 0
-9 -8 -5 -6 -12 10 16 -13 14 -25 0
-9 -8 -5 -6 -12 10 16 -13 -14 -25 0
-9 -8 -5 -6 -12 10 -16 13 14 -25 0
-9 -8 -5 -6 -12 10 -16 13 -14 -25 0
-9 -8 -5 -6 -12 10 -16 -13 14 -25 0
-9 -8 -5 -6 -12 10 -16 -13 -14 -25 0
-9 -8 -5 -6 -12 -10 16 13 14 -25 0
-9 -8 -5 -6 -12 -10 16 13 -14 -25 0
-9 -8 -5 -6 -12 -10 16 -13 14 -25 0
-9 -8 -5 -6 -12 -10 16 -13 -14 -25 0
-9 -8 -5 -6 -12 -10 -16 13 14 -25 0
-9 -8 -5 -6 -12 -10 -16 13 -14 -25 0
-9 -8 -5 -6 -12 -10 -16 -13 14 -25 0
-9 -8 -5 -6 -12 -10 -16 -13 -14 -25 0
10 5 6 7 9 11 13 14 15 -26 0
10 5 6 7 9 11 13 14 -15 -26 0
10 5 6 7 9 11 13 -14 15 -26 0
10 5 6 7 9 11 13 -14 -15 -26 0
10 5 6 7 9 11 -13 14 15 -26 0
10 5 6 7 9 11 -13 14 -15 -26 0
10 5 6 7 9 11 -13 -14 15 -26 0
10 5 6 7 9 11 -13 -14 -15 26 0
10 5 6 7 9 -11 13 14 15 -26 0
10 5 6 7 9 -11 13 14 -15 -26 0
10 5 6 7 9 -11 13 -14 15 -26 0
10 5 6 7 9 -11 13 -14 -15 26 0
10 5 6 7 9 -11 -13 14 15 -26 0
10 5 6 7 9 -11 -13 14 -15 26 0
10 5 6 7 9 -11 -13 -14 15 26 0
10 5 6 7 9 -11 -13 -14 -15 -26 0
10 5 6 7 -9 11 13 14 15 -26 0
10 5 6 7 -9 11 13 14 -15 -26 0
10 5 6 7 -9 11 13 -14 15 -26 0
10 5 6 7 -9 11 13 -14 -15 26 0
10 5 6 7 -9 11 -13 14 15 -26 0
10 5 6 7 -9 11 -13 14 -15 26 0
10 5 6 7 -9 11 -13 -14 15 26 0
10 5 6 7 -9 11 -13 -14 -15 -26 0
10 5 6 7 -9 -11 13 14 15 -26 0
10 5 6 7 -9 -11 13 14 -15 26 0
10 5 6 7 -9 -11 13 -14 15 26 0
10 5 6 7 -9 -11 13 -14 -15 -26 0
10 5 6 7 -9 -11 -13 14 15 26 0
10 5 6 7 -9 -11 -13 14 -15 -26 0
10 5 6 7 -9 -11 -13 -14 15 -26 0
10 5 6 7 -9 -11 -13 -14 -15 -26 0
10 5 6 -7 9 11 13 14 15 -26 0
10 5 6 -7 9 11 13 14 -15 -26 0
10 5 6 -7 9 11 13 -14 15 -26 0
10 5 6 -7 9 11 13 -14 -15 26 0
10 5 6 -7 9 11 -13 14 15 -26 0
10 5 6 -7 9 11 -13 14 -15 26 0
10 5 6 -7 9 11 -13 -14 15 26 0
10 5 6 -7 9 11 -13 -14 -15 -26 0
10 5 6 -7 9 -11 13 14 15 -26 0
10 5 6 -7 9 -11 13 14 -15 26 0
10 5 6 -7 9 -11 13 -14 15 26 0
10 5 6 -7 9 -11 13 -14 -15 -26 0
10 5 6 -7 9 -11 -13 14 15 26 0
10 5 6 -7 9 -11 -13 14 -15 -26 0
10 5 6 -7 9 -11 -13 -14 15 -26 0
10 5 6 -7 9 -11 -13 -14 -15 -26 0
10 5 6 -7 -9 11 13 14 15 -26 0
10 5 6 -7 -9 11 13 14 -15 26 0
10 5 6 -7 -9 11 13 -14 15 26 0
10 5 6 -7 -9 11 13 -14 -15 -26 0
10 5 6 -7 -9 11 -13 14 15 26 0
10 5 6 -7 -9 11 -13 14 -15 -26 0
10 5 6 -7 -9 11 -13 -14 15 -26 0
10 5 6 -7 -9 11 -13 -14 -15 -26 0
10 5 6 -7 -9 -11 13 14 15 26 0
10 5 6 -7 -9 -11 13 14 -15 -26 0
10 5 6 -7 -9 -11 13 -14 15 -26 0
10 5 6 -7 -9 -11 13 -14 -15 -26 0
10 5 6 -7 -9 -11 -13 14 15 -26 0
10 5 6 -7 -9 -11 -13 14 -15 -26 0
10 5 6 -7 -9 -11 -13 -14 15 -26 0
10 5 6 -7 -9 -11 -13 -14 -15 -26 0
10 5 -6 7 9 11 13 14 15 -26 0
10 5 -6 7 9 11 13 14 -15 -26 0
10 5 -6 7 9 11 13 -14 15 -26 0
10 5 -6 7 9 11 13 -14 -15 26 0
10 5 -6 7 9 11 -13 14 15 -26 0
10 5 -6 7 9 11 -13 14 -15 26 0
10 5 -6 7 9 11 -13 -14 15 26 0
10 5 -6 7 9 11 -13 -14 -15 -26 0
10 5 -6 7 9 -11 13 14 15 -26 0
10 5 -6 7 9 -11 13 14 -15 26 0
10 5 -6 7 9 -11 13 -14 15 26 0
10 5 -6 7 9 -11 13 -14 -15 -26 0
10 5 -6 7 9 -11 -13 14 15 26 0
10 5 -6 7 9 -11 -13 14 -15 -26 0
10 5 -6 7 9 -11 -13 -14 15 -26 0
10 5 -6 7 9 -11 -13 -14 -15 -26 0
10 5 -6 7 -9 11 13 14 15 -26 0
10 5 -6 7 -9 11 13 14 -15 26 0
10 5 -6 7 -9 11 13 -14 15 26 0
10 5 -6 7 -9 11 13 -14 -15 -26 0
10 5 -6 7 -9 11 -13 14 15 26 0
10 5 -6 7 -9 11 -13 14 -15 -26 0
10 5 -6 7 -9 11 -13 -14 15 -26 0
10 5 -6 7 -9 11 -13 -14 -15 -26 0
10 5 -6 7 -9 -11 13 14 15 26 0
10 5 -6 7 -9 -11 13 14 -15 -26 0
10 5 -6 7 -9 -11 13 -14 15 -26 0
10 5 -6 7 -9 -11 13 -14 -15 -26 0
10 5 -6 7 -9 -11 -13 14 15 -26 0
10 5 -6 7 -9 -11 -13 14 -15 -26 0
10 5 -6 7 -9 -11 -13 -14 15 -26 0
10 5 -6 7 -9 -11 -13 -14 -15 -26 0
10 5 -6 -7 9 11 13 14 15 -26 0
10 5 -6 -7 9 11 13 14 -15 26 0
10 5 -6 -7 9 11 13 -14 15 26 0
10 5 -6 -7 9 11 13 -14 -15 -26 0
10 5 -6 -7 9 11 -13 14 15 26 0
10 5 -6 -7 9 11 -13 14 -15 -26 0
10 5 -6 -7 9 11 -13 -14 15 -26 0
10 5 -6 -7 9 11 -13 -14 -15 -26 0
10 5 -6 -7 9 -11 13 14 15 26 0
10 5 -6 -7 9 -11 13 14 -15 -26 0
10 5 -6 -7 9 -11 13 -14 15 -26 0
10 5 -6 -7 9 -11 13 -14 -15 -26 0
10 5 -6 -7 9 -11 -13 14 15 -26 0
10 5 -6 -7 9 -11 -13 14 -15 -26 0
10 5 -6 -7 9 -11 -13 -14 15 -26 0
10 5 -6 -7 9 -11 -13 -14 -15 -26 0
10 5 -6 -7 -9 11 13 14 15 26 0
10 5 -6 -7 -9 11 13 14 -15 -26 0
10 5 -6 -7 -9 11 13 -14 15 -26 0
10 5 -6 -7 -9 11 13 -14 -15 -26 0
10 5 -6 -7 -9 11 -13 14 15 -26 0
10 5 -6 -7 -9 11 -13 14 -15 -26 0
10 5 -6 -7 -9 11 -13 -14 15 -26 0
10 5 -6 -7 -9 11 -13 -14 -15 -26 0
10 5 -6 -7 -9 -11 13 14 15 -26 0
10 5 -6 -7 -9 -11 13 14 -15 -26 0
10 5 -6 -7 -9 -11 13 -14 15 -26 0
10 5 -6 -7 -9 -11 13 -14 -15 -26 0
10 5 -6 -7 -9 -11 -13 14 15 -26 0
10 5 -6 -7 -9 -11 -13 14 -15 -26 0
10 5 -6 -7 -9 -11 -13 -14 15 -26 0
10 5 -6 -7 -9 -11 -13 -14 -15 -26 0
10 -5 6 7 9 11 13 14 15 -26 0
10 -5 6 7 9 11 13 14 -15 -26 0
10 -5 6 7 9 11 13 -14 15 -26 0
10 -5 6 7 9 11 13 -14 -15 26 0
10 -5 6 7 9 11 -13 14 15 -26 0
10 -5 6 7 9 11 -13 14 -15 26 0
10 -5 6 7 9 11 -13 -14 15 26 0
10 -5 6 7 9 11 -13 -14 -15 -26 0
10 -5 6 7 9 -11 13 14 15 -26 0
10 -5 6 7 9 -11 13 14 -15 26 0
10 -5 6 7 9 -11 13 -14 15 26 0
10 -5 6 7 9 -11 13 -14 -15 -26 0
10 -5 6 7 9 -11 -13 14 15 26 0
10 -5 6 7 9 -11 -13 14 -15 -26 0
10 -5 6 7 9 -11 -13 -14 15 -26 0
10 -5 6 7 9 -11 -13 -14 -15 -26 0
10 -5 6 7 -9 11 13 14 15 -26 0
10 -5 6 7 -9 11 13 14 -15 26 0
10 -5 6 7 -9 11 13 -14 15 26 0
10 -5 6 7 -9 11 13 -14 -15 -26 0
10 -5 6 7 -9 11 -13 14 15 26 0
10 -5 6 7 -9 11 -13 14 -15 -26 0
10 -5 6 7 -9 11 -13 -14 15 -26 0
10 -5 6 7 -9 11 -13 -14 -15 -26 0
10 -5 6 7 -9 -11 13 14 15 26 0
10 -5 6 7 -9 -11 13 14 -15 -26 0
10 -5 6 7 -9 -11 13 -14 15 -26 0
10 -5 6 7 -9 -11 13 -14 -15 -26 0
10 -5 6 7 -9 -11 -13 14 15 -26 0
10 -5 6 7 -9 -11 -13 14 -15 -26 0
10 -5 6 7 -9 -11 -13 -14 15 -26 0
10 -5 6 7 -9 -11 -13 -14 -15 -26 0
10 -5 6 -7 9 11 13 14 15 -26 0
10 -5 6 -7 9 11 13 14 -15 26 0
10 -5 6 -7 9 11 13 -14 15 26 0
10 -5 6 -7 9 11 13 -14 -15 -26 0
10 -5 6 -7 9 11 -13 14 15 26 0
10 -5 6 -7 9 11 -13 14 -15 -26 0
10 -5 6 -7 9 11 -13 -14 15 -26 0
10 -5 6 -7 9 11 -13 -14 -15 -26 0
10 -5 6 -7 9 -11 13 14 15 26 0
10 -5 6 -7 9 -11 13 14 -15 -26 0
10 -5 6 -7 9 -11 13 -14 15 -26 0
10 -5 6 -7 9 -11 13 -14 -15 -26 0
10 -5 6 -7 9 -11 -13 14 15 -26 0
10 -5 6 -7 9 -11 -13 14 -15 -26 0
10 -5 6 -7 9 -11 -13 -14 15 -26 0
10 -5 6 -7 9 -11 -13 -14 -15 -26 0
10 -5 6 -7 -9 11 13 14 15 26 0
10 -5 6 -7 -9 11 13 14 -15 -26 0
10 -5 6 -7 -9 11 13 -14 15 -26 0
10 -5 6 -7 -9 11 13 -14 -15 -26 0
10 -5 6 -7 -9 11 -13 14 15 -26 0
10 -5 6 -7 -9 11 -13 14 -15 -26 0
10 -5 6 -7 -9 11 -13 -14 15 -26 0
10 -5 6 -7 -9 11 -13 -14 -15 -26 0
10 -5 6 -7 -9 -11 13 14 15 -26 0
10 -5 6 -7 -9 -11 13 14 -15 -26 0
10 -5 6 -7 -9 -11 13 -14 15 -26 0
10 -5 6 -7 -9 -11 13 -14 -15 -26 0
10 -5 6 -7 -9 -11 -13 14 15 -26 0
10 -5 6 -7 -9 -11 -13 14 -15 -26 0
10 -5 6 -7 -9 -11 -13 -14 15 -26 0
10 -5 6 -7 -9 -11 -13 -14 -15 -26 0
10 -5 -6 7 9 11 13 14 15 -26 0
10 -5 -6 7 9 11 13 14 -15 26 0
10 -5 -6 7 9 11 13 -14 15 26 0
10 -5 -6 7 9 11 13 -14 -15 -26 0
10 -5 -6 7 9 11 -13 14 15 26 0
10 -5 -6 7 9 11 -13 14 -15 -26 0
10 -5 -6 7 9 11 -13 -14 15 -26 0
10 -5 -6 7 9 11 -13 -14 -15 -26 0
10 -5 -6 7 9 -11 13 14 15 26 0
10 -5 -6 7 9 -11 13 14 -15 -26 0
10 -5 -6 7 9 -11 13 -14 15 -26 0
10 -5 -6 7 9 -11 13 -14 -15 -26 0
10 -5 -6 7 9 -11 -13 14 15 -26 0
10 -5 -6 7 9 -11 -13 14 -15 -26 0
10 -5 -6 7 9 -11 -13 -14 15 -26 0
10 -5 -6 7 9 -11 -13 -14 -15 -26 0
10 -5 -6 7 -9 11 13 14 15 26 0
10 -5 -6 7 -9 11 13 14 -15 -26 0
10 -5 -6 7 -9 11 13 -14 15 -26 0
10 -5 -6 7 -9 11 13 -14 -15 -26 0
10 -5 -6 7 -9 11 -13 14 15 -26 0
10 -5 -6 7 -9 11 -13 14 -15 -26 0
10 -5 -6 7 -9 11 -13 -14 15 -26 0
10 -5 -6 7 -9 11 -13 -14 -15 -26 0
10 -5 -6 7 -9 -11 13 14 15 -26 0
10 -5 -6 7 -9 -11 13 14 -15 -26 0
10 -5 -6 7 -9 -11 13 -14 15 -26 0
10 -5 -6 7 -9 -11 13 -14 -15 -26 0
10 -5 -6 7 -9 -11 -13 14 15 -26 0
10 -5 -6 7 -9 -11 -13 14 -15 -26 0
10 -5 -6 7 -9 -11 -13 -14 15 -26 0
10 -5 -6 7 -9 -11 -13 -14 -15 -26 0
10 -5 -6 -7 9 11 13 14 15 26 0
10 -5 -6 -7 9 11 13 14 -15 -26 0
10 -5 -6 -7 9 11 13 -14 15 -26 0
10 -5 -6 -7 9 11 13 -14 -15 -26 0
10 -5 -6 -7 9 11 -13 14 15 -26 0
10 -5 -6 -7 9 11 -13 14 -15 -26 0
10 -5 -6 -7 9 11 -13 -14 15 -26 0
10 -5 -6 -7 9 11 -13 -14 -15 -26 0
10 -5 -6 -7 9 -11 13 14 15 -26 0
10 -5 -6 -7 9 -11 13 14 -15 -26 0
10 -5 -6 -7 9 -11 13 -14 15 -26 0
10 -5 -6 -7 9 -11 13 -14 -15 -26 0
10 -5 -6 -7 9 -11 -13 14 15 -26 0
10 -5 -6 -7 9 -11 -13 14 -15 -26 0
10 -5 -6 -7 9 -11 -13 -14 15 -26 0
10 -5 -6 -7 9 -11 -13 -14 -15 -26 0
10 -5 -6 -7 -9 11 13 14 15 -26 0
10 -5 -6 -7 -9 11 13 14 -15 -26 0
10 -5 -6 -7 -9 11 13 -14 15 -26 0
10 -5 -6 -7 -9 11 13 -14 -15 -26 0
10 -5 -6 -7 -9 11 -13 14 15 -26 0
10 -5 -6 -7 -9 11 -13 14 -15 -26 0
10 -5 -6 -7 -9 11 -13 -14 15 -26 0
10 -5 -6 -7 -9 11 -13 -14 -15 -26 0
10 -5 -6 -7 -9 -11 13 14 15 -26 0
10 -5 -6 -7 -9 -11 13 14 -15 -26 0
10 -5 -6 -7 -9 -11 13 -14 15 -26 0
10 -5 -6 -7 -9 -11 13 -14 -15 -26 0
10 -5 -6 -7 -9 -11 -13 14 15 -26 0
10 -5 -6 -7 -9 -11 -13 14 -15 -26 0
10 -5 -6 -7 -9 -11 -13 -14 15 -26 0
10 -5 -6 -7 -9 -11 -13 -14 -15 -26 0
-10 5 6 7 9 11 13 14 15 -26 0
-10 5 6 7 9 11 13 14 -15 -26 0
-10 5 6 7 9 11 13 -14 15 -26 0
-10 5 6 7 9 11 13 -14 -15 26 0
-10 5 6 7 9 11 -13 14 15 -26 0
-10 5 6 7 9 11 -13 14 -15 26 0
-10 5 6 7 9 11 -13 -14 15 26 0
-10 5 6 7 9 11 -13 -14 -15 26 0
-10 5 6 7 9 -11 13 14 15 -26 0
-10 5 6 7 9 -11 13 14 -15 26 0
-10 5 6 7 9 -11 13 -14 15 26 0
-10 5 6 7 9 -11 13 -14 -15 26 0
-10 5 6 7 9 -11 -13 14 15 26 0
-10 5 6 7 9 -11 -13 14 -15 26 0
-10 5 6 7 9 -11 -13 -14 15 26 0
-10 5 6 7 9 -11 -13 -14 -15 -26 0
-10 5 6 7 -9 11 13 14 15 -26 0
-10 5 6 7 -9 11 13 14 -15 26 0
-10 5 6 7 -9 11 13 -14 15 26 0
-10 5 6 7 -9 11 13 -14 -15 26 0
-10 5 6 7 -9 11 -13 14 15 26 0
-10 5 6 7 -9 11 -13 14 -15 26 0
-10 5 6 7 -9 11 -13 -14 15 26 0
-10 5 6 7 -9 11 -13 -14 -15 -26 0
-10 5 6 7 -9 -11 13 14 15 26 0
-10 5 6 7 -9 -11 13 14 -15 26 0
-10 5 6 7 -9 -11 13 -14 15 26 0
-10 5 6 7 -9 -11 13 -14 -15 -26 0
-10 5 6 7 -9 -11 -13 14 15 26 0
-10 5 6 7 -9 -11 -13 14 -15 -26 0
-10 5 6 7 -9 -11 -13 -14 15 -26 0
-10 5 6 7 -9 -11 -13 -14 -15 -26 0
-10 5 6 -7 9 11 13 14 15 -26 0
-10 5 6 -7 9 11 13 14 -15 26 0
-10 5 6 -7 9 11 13 -14 15 26 0
-10 5 6 -7 9 11 13 -14 -15 26 0
-10 5 6 -7 9 11 -13 14 15 26 0
-10 5 6 -7 9 11 -13 14 -15 26 0
-10 5 6 -7 9 11 -13 -14 15 26 0
-10 5 6 -7 9 11 -13 -14 -15 -26 0
-10 5 6 -7 9 -11 13 14 15 26 0
-10 5 6 -7 9 -11 13 14 -15 26 0
-10 5 6 -7 9 -11 13 -14 15 26 0
-10 5 6 -7 9 -11 13 -14 -15 -26 0
-10 5 6 -7 9 -11 -13 14 15 26 0
-10 5 6 -7 9 -11 -13 14 -15 -26 0
-10 5 6 -7 9 -11 -13 -14 15 -26 0
-10 5 6 -7 9 -11 -13 -14 -15 -26 0
-10 5 6 -7 -9 11 13 14 15 26 0
-10 5 6 -7 -9 11 13 14 -15 26 0
-10 5 6 -7 -9 11 13 -14 15 26 0
-10 5 6 -7 -9 11 13 -14 -15 -26 0
-10 5 6 -7 -9 11 -13 14 15 26 0
-10 5 6 -7 -9 11 -13 14 -15 -26 0
-10 5 6 -7 -9 11 -13 -14 15 -26 0
-10 5 6 -7 -9 11 -13 -14 -15 -26 0
-10 5 6 -7 -9 -11 13 14 15 26 0
-10 5 6 -7 -9 -11 13 14 -15 -26 0
-10 5 6 -7 -9 -11 13 -14 15 -26 0
-10 5 6 -7 -9 -11 13 -14 -15 -26 0
-10 5 6 -7 -9 -11 -13 14 15 -26 0
-10 5 6 -7 -9 -11 -13 14 -15 -26 0
-10 5 6 -7 -9 -11 -13 -14 15 -26 0
-10 5 6 -7 -9 -11 -13 -14 -15 -26 0
-10 5 -6 7 9 11 13 14 15 -26 0
-10 5 -6 7 9 11 13 14 -15 26 0
-10 5 -6 7 9 11 13 -14 15 26 0
-10 5 -6 7 9 11 13 -14 -15 26 0
-10 5 -6 7 9 11 -13 14 15 26 0
-10 5 -6 7 9 11 -13 14 -15 26 0
-10 5 -6 7 9 11 -13 -14 15 26 0
-10 5 -6 7 9 11 -13 -14 -15 -26 0
-10 5 -6 7 9 -11 13 14 15 26 0
-10 5 -6 7 9 -11 13 14 -15 26 0
-10 5 -6 7 9 -11 13 -14 15 26 0
-10 5 -6 7 9 -11 13 -14 -15 -26 0
-10 5 -6 7 9 -11 -13 14 15 26 0
-10 5 -6 7 9 -11 -13 14 -15 -26 0
-10 5 -6 7 9 -11 -13 -14 15 -26 0
-10 5 -6 7 9 -11 -13 -14 -15 -26 0
-10 5 -6 7 -9 11 13 14 15 26 0
-10 5 -6 7 -9 11 13 14 -15 26 0
-10 5 -6 7 -9 11 13 -14 15 26 0
-10 5 -6 7 -9 11 13 -14 -15 -26 0
-10 5 -6 7 -9 11 -13 14 15 26 0
-10 5 -6 7 -9 11 -13 14 -15 -26 0
-10 5 -6 7 -9 11 -13 -14 15 -26 0
-10 5 -6 7 -9 11 -13 -14 -15 -26 0
-10 5 -6 7 -9 -11 13 14 15 26 0
-10 5 -6 7 -9 -11 13 14 -15 -26 0
-10 5 -6 7 -9 -11 13 -14 15 -26 0
-10 5 -6 7 -9 -11 13 -14 -15 -26 0
-10 5 -6 7 -9 -11 -13 14 15 -26 0
-10 5 -6 7 -9 -11 -13 14 -15 -26 0
-10 5 -6 7 -9 -11 -13 -14 15 -26 0
-10 5 -6 7 -9 -11 -13 -14 -15 -26 0
-10 5 -6 -7 9 11 13 14 15 26 0
-10 5 -6 -7 9 11 13 14 -15 26 0
-10 5 -6 -7 9 11 13 -14 15 26 0
-10 5 -6 -7 9 11 13 -14 -15 -26 0
-10 5 -6 -7 9 11 -13 14 15 26 0
-10 5 -6 -7 9 11 -13 14 -15 -26 0
-10 5 -6 -7 9 11 -13 -14 15 -26 0
-10 5 -6 -7 9 11 -13 -14 -15 -26 0
-10 5 -6 -7 9 -11 13 14 15 26 0
-10 5 -6 -7 9 -11 13 14 -15 -26 0
-10 5 -6 -7 9 -11 13 -14 15 -26 0
-10 5 -6 -7 9 -11 13 -14 -15 -26 0
-10 5 -6 -7 9 -11 -13 14 15 -26 0
-10 5 -6 -7 9 -11 -13 14 -15 -26 0
-10 5 -6 -7 9 -11 -13 -14 15 -26 0
-10 5 -6 -7 9 -11 -13 -14 -15 -26 0
-10 5 -6 -7 -9 11 13 14 15 26 0
-10 5 -6 -7 -9 11 13 14 -15 -26 0
-10 5 -6 -7 -9 11 13 -14 15 -26 0
-10 5 -6 -7 -9 11 13 -14 -15 -26 0
-10 5 -6 -7 -9 11 -13 14 15 -26 0
-10 5 -6 -7 -9 11 -13 14 -15 -26 0
-10 5 -6 -7 -9 11 -13 -14 15 -26 0
-10 5 -6 -7 -9 11 -13 -14 -15 -26 0
-10 5 -6 -7 -9 -11 13 14 15 -26 0
-10 5 -6 -7 -9 -11 13 14 -15 -26 0
-10 5 -6 -7 -9 -11 13 -14 15 -26 0
-10 5 -6 -7 -9 -11 13 -14 -15 -26 0
-10 5 -6 -7 -9 -11 -13 14 15 -26 0
-10 5 -6 -7 -9 -11 -13 14 -15 -26 0
-10 5 -6 -7 -9 -11 -13 -14 15 -26 0
-10 5 -6 -7 -9 -11 -13 -14 -15 -26 0
-10 -5 6 7 9 11 13 14 15 -26 0
-10 -5 6 7 9 11 13 14 -15 26 0
-10 -5 6 7 9 11 13 -14 15 26 0
-10 -5 6 7 9 11 13 -14 -15 26 0
-10 -5 6 7 9 11 -13 14 15 26 0
-10 -5 6 7 9 11 -13 14 -15 26 0
-10 -5 6 7 9 11 -13 -14 15 26 0
-10 -5 6 7 9 11 -13 -14 -15 -26 0
-10 -5 6 7 9 -11 13 14 15 26 0
-10 -5 6 7 9 -11 13 14 -15 26 0
-10 -5 6 7 9 -11 13 -14 15 26 0
-10 -5 6 7 9 -11 13 -14 -15 -26 0
-10 -5 6 7 9 -11 -13 14 15 26 0
-10 -5 6 7 9 -11 -13 14 -15 -26 0
-10 -5 6 7 9 -11 -13 -14 15 -26 0
-10 -5 6 7 9 -11 -13 -14 -15 -26 0
-10 -5 6 7 -9 11 13 14 15 26 0
-10 -5 6 7 -9 11 13 14 -15 26 0
-10 -5 6 7 -9 11 13 -14 15 26 0
-10 -5 6 7 -9 11 13 -14 -15 -26 0
-10 -5 6 7 -9 11 -13 14 15 26 0
-10 -5 6 7 -9 11 -13 14 -15 -26 0
-10 -5 6 7 -9 11 -13 -14 15 -26 0
-10 -5 6 7 -9 11 -13 -14 -15 -26 0
-10 -5 6 7 -9 -11 13 14 15 26 0
-10 -5 6 7 -9 -11 13 14 -15 -26 0
-10 -5 6 7 -9 -11 13 -14 15 -26 0
-10 -5 6 7 -9 -11 13 -14 -15 -26 0
-10 -5 6 7 -9 -11 -13 14 15 -26 0
-10 -5 6 7 -9 -11 -13 14 -15 -26 0
-10 -5 6 7 -9 -11 -13 -14 15 -26 0
-10 -5 6 7 -9 -11 -13 -14 -15 -26 0
-10 -5 6 -7 9 11 13 14 15 26 0
-10 -5 6 -7 9 11 13 14 -15 26 0
-10 -5 6 -7 9 11 13 -14 15 26 0
-10 -5 6 -7 9 11 13 -14 -15 -26 0
-10 -5 6 -7 9 11 -13 14 15 26 0
-10 -5 6 -7 9 11 -13 14 -15 -26 0
-10 -5 6 -7 9 11 -13 -14 15 -26 0
-10 -5 6 -7 9 11 -13 -14 -15 -26 0
-10 -5 6 -7 9 -11 13 14 15 26 0
-10 -5 6 -7 9 -11 13 14 -15 -26 0
-10 -5 6 -7 9 -11 13 -14 15 -26 0
-10 -5 6 -7 9 -11 13 -14 -15 -26 0
-10 -5 6 -7 9 -11 -13 14 15 -26 0
-10 -5 6 -7 9 -11 -13 14 -15 -26 0
-10 -5 6 -7 9 -11 -13 -14 15 -26 0
-10 -5 6 -7 9 -11 -13 -14 -15 -26 0
-10 -5 6 -7 -9 11 13 14 15 26 0
-10 -5 6 -7 -9 11 13 14 -15 -26 0
-10 -5 6 -7 -9 11 13 -14 15 -26 0
-10 -5 6 -7 -9 11 13 -14 -15 -26 0
-10 -5 6 -7 -9 11 -13 14 15 -26 0
-10 -5 6 -7 -9 11 -13 14 -15 -26 0
-10 -5 6 -7 -9 11 -13 -14 15 -26 0
-10 -5 6 -7 -9 11 -13 -14 -15 -26 0
-10 -5 6 -7 -9 -11 13 14 15 -26 0
-10 -5 6 -7 -9 -11 13 14 -15 -26 0
-10 -5 6 -7 -9 -11 13 -14 15 -26 0
-10 -5 6 -7 -9 -11 13 -14 -15 -26 0
-10 -5 6 -7 -9 -11 -13 14 15 -26 0
-10 -5 6 -7 -9 -11 -13 14 -15 -26 0
-10 -5 6 -7 -9 -11 -13 -14 15 -26 0
-10 -5 6 -7 -9 -11 -13 -14 -15 -26 0
-10 -5 -6 7 9 11 13 14 15 26 0
-10 -5 -6 7 9 11 13 14 -15 26 0
-10 -5 -6 7 9 11 13 -14 15 26 0
-10 -5 -6 7 9 11 13 -14 -15 -26 0
-10 -5 -6 7 9 11 -13 14 15 26 0
-10 -5 -6 7 9 11 -13 14 -15 -26 0
-10 -5 -6 7 9 11 -13 -14 15 -26 0
-10 -5 -6 7 9 11 -13 -14 -15 -26 0
-10 -5 -6 7 9 -11 13 14 15 26 0
-10 -5 -6 7 9 -11 13 14 -15 -26 0
-10 -5 -6 7 9 -11 13 -14 15 -26 0
-10 -5 -6 7 9 -11 13 -14 -15 -26 0
-10 -5 -6 7 9 -11 -13 14 15 -26 0
-10 -5 -6 7 9 -11 -13 14 -15 -26 0
-10 -5 -6 7 9 -11 -13 -14 15 -26 0
-10 -5 -6 7 9 -11 -13 -14 -15 -26 0
-10 -5 -6 7 -9 11 13 14 15 26 0
-10 -5 -6 7 -9 11 13 14 -15 -26 0
-10 -5 -6 7 -9 11 13 -14 15 -26 0
-10 -5 -6 7 -9 11 13 -14 -15 -26 0
-10 -5 -6 7 -9 11 -13 14 15 -26 0
-10 -5 -6 7 -9 11 -13 14 -15 -26 0
-10 -5 -6 7 -9 11 -13 -14 15 -26 0
-10 -5 -6 7 -9 11 -13 -14 -15 -26 0
-10 -5 -6 7 -9 -11 13 14 15 -26 0
-10 -5 -6 7 -9 -11 13 14 -15 -26 0
-10 -5 -6 7 -9 -11 13 -14 15 -26 0
-10 -5 -6 7 -9 -11 13 -14 -15 -26 0
-10 -5 -6 7 -9 -11 -13 14 15 -26 0
-10 -5 -6 7 -9 -11 -13 14 -15 -26 0
-10 -5 -6 7 -9 -11 -13 -14 15 -26 0
-10 -5 -6 7 -9 -11 -13 -14 -15 -26 0
-10 -5 -6 -7 9 11 13 14 15 26 0
-10 -5 -6 -7 9 11 13 14 -15 -26 0
-10 -5 -6 -7 9 11 13 -14 15 -26 0
-10 -5 -6 -7 9 11 13 -14 -15 -26 0
-10 -5 -6 -7 9 11 -13 14 15 -26 0
-10 -5 -6 -7 9 11 -13 14 -15 -26 0
-10 -5 -6 -7 9 11 -13 -14 15 -26 0
-10 -5 -6 -7 9 11 -13 -14 -15 -26 0
-10 -5 -6 -7 9 -11 13 14 15 -26 0
-10 -5 -6 -7 9 -11 13 14 -15 -26 0
-10 -5 -6 -7 9 -11 13 -14 15 -26 0
-10 -5 -6 -7 9 -11 13 -14 -15 -26 0
-10 -5 -6 -7 9 -11 -13 14 15 -26 0
-10 -5 -6 -7 9 -11 -13 14 -15 -26 0
-10 -5 -6 -7 9 -11 -13 -14 15 -26 0
-10 -5 -6 -7 9 -11 -13 -14 -15 -26 0
-10 -5 -6 -7 -9 11 13 14 15 -26 0
-10 -5 -6 -7 -9 11 13 14 -15 -26 0
-10 -5 -6 -7 -9 11 13 -14 15 -26 0
-10 -5 -6 -7 -9 11 13 -14 -15 -26 0
-10 -5 -6 -7 -9 11 -13 14 15 -26 0
-10 -5 -6 -7 -9 11 -13 14 -15 -26 0
-10 -5 -6 -7 -9 11 -13 -14 15 -26 0
-10 -5 -6 -7 -9 11 -13 -14 -15 -26 0
-10 -5 -6 -7 -9 -11 13 14 15 -26 0
-10 -5 -6 -7 -9 -11 13 14 -15 -26 0
-10 -5 -6 -7 -9 -11 13 -14 15 -26 0
-10 -5 -6 -7 -9 -11 13 -14 -15 -26 0
-10 -5 -6 -7 -9 -11 -13 14 15 -26 0
-10 -5 -6 -7 -9 -11 -13 14 -15 -26 0
-10 -5 -6 -7 -9 -11 -13 -14 15 -26 0
-10 -5 -6 -7 -9 -11 -13 -14 -15 -26 0
11 6 7 8 10 12 14 15 16 -27 0
11 6 7 8 10 12 14 15 -16 -27 0
11 6 7 8 10 12 14 -15 16 -27 0
11 6 7 8 10 12 14 -15 -16 -27 0
11 6 7 8 10 12 -14 15 16 -27 0
11 6 7 8 10 12 -14 15 -16 -27 0
11 6 7 8 10 12 -14 -15 16 -27 0
11 6 7 8 10 12 -14 -15 -16 27 0
11 6 7 8 10 -12 14 15 16 -27 0
11 6 7 8 10 -12 14 15 -16 -27 0
11 6 7 8 10 -12 14 -15 16 -27 0
11 6 7 8 10 -12 14 -15 -16 27 0
11 6 7 8 10 -12 -14 15 16 -27 0
11 6 7 8 10 -12 -14 15 -16 27 0
11 6 7 8 10 -12 -14 -15 16 27 0
11 6 7 8 10 -12 -14 -15 -16 -27 0
11 6 7 8 -10 12 14 15 16 -27 0
11 6 7 8 -10 12 14 15 -16 -27 0
11 6 7 8 -10 12 14 -15 16 -27 0
11 6 7 8 -10 12 14 -15 -16 27 0
11 6 7 8 -10 12 -14 15 16 -27 0
11 6 7 8 -10 12 -14 15 -16 27 0
11 6 7 8 -10 12 -14 -15 16 27 0
11 6 7 8 -10 12 -14 -15 -16 -27 0
11 6 7 8 -10 -12 14 15 16 -27 0
11 6 7 8 -10 -12 14 15 -16 27 0
11 6 7 8 -10 -12 14 -15 16 27 0
11 6 7 8 -10 -12 14 -15 -16 -27 0
11 6 7 8 -10 -12 -14 15 16 27 0
11 6 7 8 -10 -12 -14 15 -16 -27 0
11 6 7 8 -10 -12 -14 -15 16 -27 0
11 6 7 8 -10 -12 -14 -15 -16 -27 0
11 6 7 -8 10 12 14 15 16 -27 0
11 6 7 -8 10 12 14 15 -16 -27 0
11 6 7 -8 10 12 14 -15 16 -27 0
11 6 7 -8 10 12 14 -15 -16 27 0
11 6 7 -8 10 12 -14 15 16 -27 0
11 6 7 -8 10 12 -14 15 -16 27 0
11 6 7 -8 10 12 -14 -15 16 27 0
11 6 7 -8 10 12 -14 -15 -16 -27 0
11 6 7 -8 10 -12 14 15 16 -27 0
11 6 7 -8 10 -12 14 15 -16 27 0
11 6 7 -8 10 -12 14 -15 16 27 0
11 6 7 -8 10 -12 14 -15 -16 -27 0
11 6 7 -8 10 -12 -14 15 16 27 0
11 6 7 -8 10 -12 -14 15 -16 -27 0
11 6 7 -8 10 -12 -14 -15 16 -27 0
11 6 7 -8 10 -12 -14 -15 -16 -27 0
11 6 7 -8 -10 12 14 15 16 -27 0
11 6 7 -8 -10 12 14 15 -16 27 0
11 6 7 -8 -10 12 14 -15 16 27 0
11 6 7 -8 -10 12 14 -15 -16 -27 0
11 6 7 -8 -10 12 -14 15 16 27 0
11 6 7 -8 -10 12 -14 15 -16 -27 0
11 6 7 -8 -10 12 -14 -15 16 -27 0
11 6 7 -8 -10 12 -14 -15 -16 -27 0
11 6 7 -8 -10 -12 14 15 16 27 0
11 6 7 -8 -10 -12 14 15 -16 -27 0
11 6 7 -8 -10 -12 14 -15 16 -27 0
11 6 7 -8 -10 -12 14 -15 -16 -27 0
11 6 7 -8 -10 -12 -14 15 16 -27 0
11 6 7 -8 -10 -12 -14 15 -16 -27 0
11 6 7 -8 -10 -12 -14 -15 16 -27 0
11 6 7 -8 -10 -12 -14 -15 -16 -27 0
11 6 -7 8 10 12 14 15 16 -27 0
11 6 -7 8 10 12 14 15 -16 -27 0
11 6 -7 8 10 12 14 -15 16 -27 0
11 6 -7 8 10 12 14 -15 -16 27 0
11 6 -7 8 10 12 -14 15 16 -27 0
11 6 -7 8 10 12 -14 15 -16 27 0
11 6 -7 8 10 12 -14 -15 16 27 0
11 6 -7 8 10 12 -14 -15 -16 -27 0
11 6 -7 8 10 -12 14 15 16 -27 0
11 6 -7 8 10 -12 14 15 -16 27 0
11 6 -7 8 10 -12 14 -15 16 27 0
11 6 -7 8 10 -12 14 -15 -16 -27 0
11 6 -7 8 10 -12 -14 15 16 27 0
11 6 -7 8 10 -12 -14 15 -16 -27 0
11 6 -7 8 10 -12 -14 -15 16 -27 0
11 6 -7 8 10 -12 -14 -15 -16 -27 0
11 6 -7 8 -10 12 14 15 16 -27 0
11 6 -7 8 -10 12 14 15 -16 27 0
11 6 -7 8 -10 12 14 -15 16 27 0
11 6 -7 8 -10 12 14 -15 -16 -27 0
11 6 -7 8 -10 12 -14 15 16 27 0
11 6 -7 8 -10 12 -14 15 -16 -27 0
11 6 -7 8 -10 12 -14 -15 16 -27 0
11 6 -7 8 -10 12 -14 -15 -16 -27 0
11 6 -7 8 -10 -12 14 15 16 27 0
11 6 -7 8 -10 -12 14 15 -16 -27 0
11 6 -7 8 -10 -12 14 -15 16 -27 0
11 6 -7 8 -10 -12 14 -15 -16 -27 0
11 6 -7 8 -10 -12 -14 15 16 -27 0
11 6 -7 8 -10 -12 -14 15 -16 -27 0
11 6 -7 8 -10 -12 -14 -15 16 -27 0
11 6 -7 8 -10 -12 -14 -15 -16 -27 0
11 6 -7 -8 10 12 14 15 16 -27 0
11 6 -7 -8 10 12 14 15 -16 27 0
11 6 -7 -8 10 12 14 -15 16 27 0
11 6 -7 -8 10 12 14 -15 -16 -27 0
11 6 -7 -8 10 12 -14 15 16 27 0
11 6 -7 -8 10 12 -14 15 -16 -27 0
11 6 -7 -8 10 12 -14 -15 16 -27 0
11 6 -7 -8 10 12 -14 -15 -16 -27 0
11 6 -7 -8 10 -12 14 15 16 27 0
11 6 -7 -8 10 -12 14 15 -16 -27 0
11 6 -7 -8 10 -12 14 -15 16 -27 0
11 6 -7 -8 10 -12 14 -15 -16 -27 0
11 6 -7 -8 10 -12 -14 15 16 -27 0
11 6 -7 -8 10 -12 -14 15 -16 -27 0
11 6 -7 -8 10 -12 -14 -15 16 -27 0
11 6 -7 -8 10 -12 -14 -15 -16 -27 0
11 6 -7 -8 -10 12 14 15 16 27 0
11 6 -7 -8 -10 12 14 15 -16 -27 0
11 6 -7 -8 -10 12 14 -15 16 -27 0
11 6 -7 -8 -10 12 14 -15 -16 -27 0
11 6 -7 -8 -10 12 -14 15 16 -27 0
11 6 -7 -8 -10 12 -14 15 -16 -27 0
11 6 -7 -8 -10 12 -14 -15 16 -27 0
11 6 -7 -8 -10 12 -14 -15 -16 -27 0
11 6 -7 -8 -10 -12 14 15 16 -27 0
11 6 -7 -8 -10 -12 14 15 -16 -27 0
11 6 -7 -8 -10 -12 14 -15 16 -27 0
11 6 -7 -8 -10 -12 14 -15 -16 -27 0
11 6 -7 -8 -10 -12 -14 15 16 -27 0
11 6 -7 -8 -10 -12 -14 15 -16 -27 0
11 6 -7 -8 -10 -12 -14 -15 16 -27 0
11 6 -7 -8 -10 -12 -14 -15 -16 -27 0
11 -6 7 8 10 12 14 15 16 -27 0
11 -6 7 8 10 12 14 15 -16 -27 0
11 -6 7 8 10 12 14 -15 16 -27 0
11 -6 7 8 10 12 14 -15 -16 27 0
11 -6 7 8 10 12 -14 15 16 -27 0
11 -6 7 8 10 12 -14 15 -16 27 0
11 -6 7 8 10 12 -14 -15 16 27 0
11 -6 7 8 10 12 -14 -15 -16 -27 0
11 -6 7 8 10 -12 14 15 16 -27 0
11 -6 7 8 10 -12 14 15 -16 27 0
11 -6 7 8 10 -12 14 -15 16 27 0
11 -6 7 8 10 -12 14 -15 -16 -27 0
11 -6 7 8 10 -12 -14 15 16 27 0
11 -6 7 8 10 -12 -14 15 -16 -27 0
11 -6 7 8 10 -12 -14 -15 16 -27 0
11 -6 7 8 10 -12 -14 -15 -16 -27 0
11 -6 7 8 -10 12 14 15 16 -27 0
11 -6 7 8 -10 12 14 15 -16 27 0
11 -6 7 8 -10 12 14 -15 16 27 0
11 -6 7 8 -10 12 14 -15 -16 -27 0
11 -6 7 8 -10 12 -14 15 16 27 0
11 -6 7 8 -10 12 -14 15 -16 -27 0
11 -6 7 8 -10 12 -14 -15 16 -27 0
11 -6 7 8 -10 12 -14 -15 -16 -27 0
11 -6 7 8 -10 -12 14 15 16 27 0
11 -6 7 8 -10 -12 14 15 -16 -27 0
11 -6 7 8 -10 -12 14 -15 16 -27 0
11 -6 7 8 -10 -12 14 -15 -16 -27 0
11 -6 7 8 -10 -12 -14 15 16 -27 0
11 -6 7 8 -10 -12 -14 15 -16 -27 0
11 -6 7 8 -10 -12 -14 -15 16 -27 0
11 -6 7 8 -10 -12 -14 -15 -16 -27 0
11 -6 7 -8 10 12 14 15 16 -27 0
11 -6 7 -8 10 12 14 15 -16 27 0
11 -6 7 -8 10 12 14 -15 16 27 0
11 -6 7 -8 10 12 14 -15 -16 -27 0
11 -6 7 -8 10 12 -14 15 16 27 0
11 -6 7 -8 10 12 -14 15 -16 -27 0
11 -6 7 -8 10 12 -14 -15 16 -27 0
11 -6 7 -8 10 12 -14 -15 -16 -27 0
11 -6 7 -8 10 -12 14 15 16 27 0
11 -6 7 -8 10 -12 14 15 -16 -27 0
11 -6 7 -8 10 -12 14 -15 16 -27 0
11 -6 7 -8 10 -12 14 -15 -16 -27 0
11 -6 7 -8 10 -12 -14 15 16 -27 0
11 -6 7 -8 10 -12 -14 15 -16 -27 0
11 -6 7 -8 10 -12 -14 -15 16 -27 0
11 -6 7 -8 10 -12 -14 -15 -16 -27 0
11 -6 7 -8 -10 12 14 15 16 27 0
11 -6 7 -8 -10 12 14 15 -16 -27 0
11 -6 7 -8 -10 12 14 -15 16 -27 0
11 -6 7 -8 -10 12 14 -15 -16 -27 0
11 -6 7 -8 -10 12 -14 15 16 -27 0
11 -6 7 -8 -10 12 -14 15 -16 -27 0
11 -6 7 -8 -10 12 -14 -15 16 -27 0
11 -6 7 -8 -10 12 -14 -15 -16 -27 0
11 -6 7 -8 -10 -12 14 15 16 -27 0
11 -6 7 -8 -10 -12 14 15 -16 -27 0
11 -6 7 -8 -10 -12 14 -15 16 -27 0
11 -6 7 -8 -10 -12 14 -15 -16 -27 0
11 -6 7 -8 -10 -12 -14 15 16 -27 0
11 -6 7 -8 -10 -12 -14 15 -16 -27 0
11 -6 7 -8 -10 -12 -14 -15 16 -27 0
11 -6 7 -8 -10 -12 -14 -15 -16 -27 0
11 -6 -7 8 10 12 14 15 16 -27 0
11 -6 -7 8 10 12 14 15 -16 27 0
11 -6 -7 8 10 12 14 -15 16 27 0
11 -6 -7 8 10 12 14 -15 -16 -27 0
11 -6 -7 8 10 12 -14 15 16 27 0
11 -6 -7 8 10 12 -14 15 -16 -27 0
11 -6 -7 8 10 12 -14 -15 16 -27 0
11 -6 -7 8 10 12 -14 -15 -16 -27 0
11 -6 -7 8 10 -12 14 15 16 27 0
11 -6 -7 8 10 -12 14 15 -16 -27 0
11 -6 -7 8 10 -12 14 -15 16 -27 0
11 -6 -7 8 10 -12 14 -15 -16 -27 0
11 -6 -7 8 10 -12 -14 15 16 -27 0
11 -6 -7 8 10 -12 -14 15 -16 -27 0
11 -6 -7 8 10 -12 -14 -15 16 -27 0
11 -6 -7 8 10 -12 -14 -15 -16 -27 0
11 -6 -7 8 -10 12 14 15 16 27 0
11 -6 -7 8 -10 12 14 15 -16 -27 0
11 -6 -7 8 -10 12 14 -15 16 -27 0
11 -6 -7 8 -10 12 14 -15 -16 -27 0
11 -6 -7 8 -10 12 -14 15 16 -27 0
11 -6 -7 8 -10 12 -14 15 -16 -27 0
11 -6 -7 8 -10 12 -14 -15 16 -27 0
11 -6 -7 8 -10 12 -14 -15 -16 -27 0
11 -6 -7 8 -10 -12 14 15 16 -27 0
11 -6 -7 8 -10 -12 14 15 -16 -27 0
11 -6 -7 8 -10 -12 14 -15 16 -27 0
11 -6 -7 8 -10 -12 14 -15 -16 -27 0
11 -6 -7 8 -10 -12 -14 15 16 -27 0
11 -6 -7 8 -10 -12 -14 15 -16 -27 0
11 -6 -7 8 -10 -12 -14 -15 16 -27 0
11 -6 -7 8 -10 -12 -14 -15 -16 -27 0
11 -6 -7 -8 10 12 14 15 16 27 0
11 -6 -7 -8 10 12 14 15 -16 -27 0
11 -6 -7 -8 10 12 14 -15 16 -27 0
11 -6 -7 -8 10 12 14 -15 -16 -27 0
11 -6 -7 -8 10 12 -14 15 16 -27 0
11 -6 -7 -8 10 12 -14 15 -16 -27 0
11 -6 -7 -8 10 12 -14 -15 16 -27 0
11 -6 -7 -8 10 12 -14 -15 -16 -27 0
11 -6 -7 -8 10 -12 14 15 16 -27 0
11 -6 -7 -8 10 -12 14 15 -16 -27 0
11 -6 -7 -8 10 -12 14 -15 16 -27 0
11 -6 -7 -8 10 -12 14 -15 -16 -27 0
11 -6 -7 -8 10 -12 -14 15 16 -27 0
11 -6 -7 -8 10 -12 -14 15 -16 -27 0
11 -6 -7 -8 10 -12 -14 -15 16 -27 0
11 -6 -7 -8 10 -12 -14 -15 -16 -27 0
11 -6 -7 -8 -10 12 14 15 16 -27 0
11 -6 -7 -8 -10 12 14 15 -16 -27 0
11 -6 -7 -8 -10 12 14 -15 16 -27 0
11 -6 -7 -8 -10 12 14 -15 -16 -27 0
11 -6 -7 -8 -10 12 -14 15 16 -27 0
11 -6 -7 -8 -10 12 -14 15 -16 -27 0
11 -6 -7 -8 -10 12 -14 -15 16 -27 0
11 -6 -7 -8 -10 12 -14 -15 -16 -27 0
11 -6 -7 -8 -10 -12 14 15 16 -27 0
11 -6 -7 -8 -10 -12 14 15 -16 -27 0
11 -6 -7 -8 -10 -12 14 -15 16 -27 0
11 -6 -7 -8 -10 -12 14 -15 -16 -27 0
11 -6 -7 -8 -10 -12 -14 15 16 -27 0
11 -6 -7 -8 -10 -12 -14 15 -16 -27 0
11 -6 -7 -8 -10 -12 -14 -15 16 -27 0
11 -6 -7 -8 -10 -12 -14 -15 -16 -27 0
-11 6 7 8 10 12 14 15 16 -27 0
-11 6 7 8 10 12 14 15 -16 -27 0
-11 6 7 8 10 12 14 -15 16 -27 0
-11 6 7 8 10 12 14 -15 -16 27 0
-11 6 7 8 10 12 -14 15 16 -27 0
-11 6 7 8 10 12 -14 15 -16 27 0
-11 6 7 8 10 12 -14 -15 16 27 0
-11 6 7 8 10 12 -14 -15 -16 27 0
-11 6 7 8 10 -12 14 15 16 -27 0
-11 6 7 8 10 -12 14 15 -16 27 0
-11 6 7 8 10 -12 14 -15 16 27 0
-11 6 7 8 10 -12 14 -15 -16 27 0
-11 6 7 8 10 -12 -14 15 16 27 0
-11 6 7 8 10 -12 -14 15 -16 27 0
-11 6 7 8 10 -12 -14 -15 16 27 0
-11 6 7 8 10 -12 -14 -15 -16 -27 0
-11 6 7 8 -10 12 14 15 16 -27 0
-11 6 7 8 -10 12 14 15 -16 27 0
-11 6 7 8 -10 12 14 -15 16 27 0
-11 6 7 8 -10 12 14 -15 -16 27 0
-11 6 7 8 -10 12 -14 15 16 27 0
-11 6 7 8 -10 12 -14 15 -16 27 0
-11 6 7 8 -10 12 -14 -15 16 27 0
-11 6 7 8 -10 12 -14 -15 -16 -27 0
-11 6 7 8 -10 -12 14 15 16 27 0
-11 6 7 8 -10 -12 14 15 -16 27 0
-11 6 7 8 -10 -12 14 -15 16 27 0
-11 6 7 8 -10 -12 14 -15 -16 -27 0
-11 6 7 8 -10 -12 -14 15 16 27 0
-11 6 7 8 -10 -12 -14 15 -16 -27 0
-11 6 7 8 -10 -12 -14 -15 16 -27 0
-11 6 7 8 -10 -12 -14 -15 -16 -27 0
-11 6 7 -8 10 12 14 15 16 -27 0
-11 6 7 -8 10 12 14 15 -16 27 0
-11 6 7 -8 10 12 14 -15 16 27 0
-11 6 7 -8 10 12 14 -15 -16 27 0
-11 6 7 -8 10 12 -14 15 16 27 0
-11 6 7 -8 10 12 -14 15 -16 27 0
-11 6 7 -8 10 12 -14 -15 16 27 0
-11 6 7 -8 10 12 -14 -15 -16 -27 0
-11 6 7 -8 10 -12 14 15 16 27 0
-11 6 7 -8 10 -12 14 15 -16 27 0
-11 6 7 -8 10 -12 14 -15 16 27 0
-11 6 7 -8 10 -12 14 -15 -16 -27 0
-11 6 7 -8 10 -12 -14 15 16 27 0
-11 6 7 -8 10 -12 -14 15 -16 -27 0
-11 6 7 -8 10 -12 -14 -15 16 -27 0
-11 6 7 -8 10 -12 -14 -15 -16 -27 0
-11 6 7 -8 -10 12 14 15 16 27 0
-11 6 7 -8 -10 12 14 15 -16 27 0
-11 6 7 -8 -10 12 14 -15 16 27 0
-11 6 7 -8 -10 12 14 -15 -16 -27 0
-11 6 7 -8 -10 12 -14 15 16 27 0
-11 6 7 -8 -10 12 -14 15 -16 -27 0
-11 6 7 -8 -10 12 -14 -15 16 -27 0
-11 6 7 -8 -10 12 -14 -15 -16 -27 0
-11 6 7 -8 -10 -12 14 15 16 27 0
-11 6 7 -8 -10 -12 14 15 -16 -27 0
-11 6 7 -8 -10 -12 14 -15 16 -27 0
-11 6 7 -8 -10 -12 14 -15 -16 -27 0
-11 6 7 -8 -10 -12 -14 15 16 -27 0
-11 6 7 -8 -10 -12 -14 15 -16 -27 0
-11 6 7 -8 -10 -12 -14 -15 16 -27 0
-11 6 7 -8 -10 -12 -14 -15 -16 -27 0
-11 6 -7 8 10 12 14 15 16 -27 0
-11 6 -7 8 10 12 14 15 -16 27 0
-11 6 -7 8 10 12 14 -15 16 27 0
-11 6 -7 8 10 12 14 -15 -16 27 0
-11 6 -7 8 10 12 -14 15 16 27 0
-11 6 -7 8 10 12 -14 15 -16 27 0
-11 6 -7 8 10 12 -14 -15 16 27 0
-11 6 -7 8 10 12 -14 -15 -16 -27 0
-11 6 -7 8 10 -12 14 15 16 27 0
-11 6 -7 8 10 -12 14 15 -16 27 0
-11 6 -7 8 10 -12 14 -15 16 27 0
-11 6 -7 8 10 -12 14 -15 -16 -27 0
-11 6 -7 8 10 -12 -14 15 16 27 0
-11 6 -7 8 10 -12 -14 15 -16 -27 0
-11 6 -7 8 10 -12 -14 -15 16 -27 0
-11 6 -7 8 10 -12 -14 -15 -16 -27 0
-11 6 -7 8 -10 12 14 15 16 27 0
-11 6 -7 8 -10 12 14 15 -16 27 0
-11 6 -7 8 -10 12 14 -15 16 27 0
-11 6 -7 8 -10 12 14 -15 -16 -27 0
-11 6 -7 8 -10 12 -14 15 16 27 0
-11 6 -7 8 -10 12 -14 15 -16 -27 0
-11 6 -7 8 -10 12 -14 -15 16 -27 0
-11 6 -7 8 -10 12 -14 -15 -16 -27 0
-11 6 -7 8 -10 -12 14 15 16 27 0
-11 6 -7 8 -10 -12 14 15 -16 -27 0
-11 6 -7 8 -10 -12 14 -15 16 -27 0
-11 6 -7 8 -10 -12 14 -15 -16 -27 0
-11 6 -7 8 -10 -12 -14 15 16 -27 0
-11 6 -7 8 -10 -12 -14 15 -16 -27 0
-11 6 -7 8 -10 -12 -14 -15 16 -27 0
-11 6 -7 8 -10 -12 -14 -15 -16 -27 0
-11 6 -7 -8 10 12 14 15 16 27 0
-11 6 -7 -8 10 12 14 15 -16 27 0
-11 6 -7 -8 10 12 14 -15 16 27 0
-11 6 -7 -8 10 12 14 -15 -16 -27 0
-11 6 -7 -8 10 12 -14 15 16 27 0
-11 6 -7 -8 10 12 -14 15 -16 -27 0
-11 6 -7 -8 10 12 -14 -15 16 -27 0
-11 6 -7 -8 10 12 -14 -15 -16 -27 0
-11 6 -7 -8 10 -12 14 15 16 27 0
-11 6 -7 -8 10 -12 14 15 -16 -27 0
-11 6 -7 -8 10 -12 14 -15 16 -27 0
-11 6 -7 -8 10 -12 14 -15 -16 -27 0
-11 6 -7 -8 10 -12 -14 15 16 -27 0
-11 6 -7 -8 10 -12 -14 15 -16 -27 0
-11 6 -7 -8 10 -12 -14 -15 16 -27 0
-11 6 -7 -8 10 -12 -14 -15 -16 -27 0
-11 6 -7 -8 -10 12 14 15 16 27 0
-11 6 -7 -8 -10 12 14 15 -16 -27 0
-11 6 -7 -8 -10 12 14 -15 16 -27 0
-11 6 -7 -8 -10 12 14 -15 -16 -27 0
-11 6 -7 -8 -10 12 -14 15 16 -27 0
-11 6 -7 -8 -10 12 -14 15 -16 -27 0
-11 6 -7 -8 -10 12 -14 -15 16 -27 0
-11 6 -7 -8 -10 12 -14 -15 -16 -27 0
-11 6 -7 -8 -10 -12 14 15 16 -27 0
-11 6 -7 -8 -10 -12 14 15 -16 -27 0
-11 6 -7 -8 -10 -12 14 -15 16 -27 0
-11 6 -7 -8 -10 -12 14 -15 -16 -27 0
-11 6 -7 -8 -10 -12 -14 15 16 -27 0
-11 6 -7 -8 -10 -12 -14 15 -16 -27 0
-11 6 -7 -8 -10 -12 -14 -15 16 -27 0
-11 6 -7 -8 -10 -12 -14 -15 -16 -27 0
-11 -6 7 8 10 12 14 15 16 -27 0
-11 -6 7 8 10 12 14 15 -16 27 0
-11 -6 7 8 10 12 14 -15 16 27 0
-11 -6 7 8 10 12 14 -15 -16 27 0
-11 -6 7 8 10 12 -14 15 16 27 0
-11 -6 7 8 10 12 -14 15 -16 27 0
-11 -6 7 8 10 12 -14 -15 16 27 0
-11 -6 7 8 10 12 -14 -15 -16 -27 0
-11 -6 7 8 10 -12 14 15 16 27 0
-11 -6 7 8 10 -12 14 15 -16 27 0
-11 -6 7 8 10 -12 14 -15 16 27 0
-11 -6 7 8 10 -12 14 -15 -16 -27 0
-11 -6 7 8 10 -12 -14 15 16 27 0
-11 -6 7 8 10 -12 -14 15 -16 -27 0
-11 -6 7 8 10 -12 -14 -15 16 -27 0
-11 -6 7 8 10 -12 -14 -15 -16 -27 0
-11 -6 7 8 -10 12 14 15 16 27 0
-11 -6 7 8 -10 12 14 15 -16 27 0
-11 -6 7 8 -10 12 14 -15 16 27 0
-11 -6 7 8 -10 12 14 -15 -16 -27 0
-11 -6 7 8 -10 12 -14 15 16 27 0
-11 -6 7 8 -10 12 -14 15 -16 -27 0
-11 -6 7 8 -10 12 -14 -15 16 -27 0
-11 -6 7 8 -10 12 -14 -15 -16 -27 0
-11 -6 7 8 -10 -12 14 15 16 27 0
-11 -6 7 8 -10 -12 14 15 -16 -27 0
-11 -6 7 8 -10 -12 14 -15 16 -27 0
-11 -6 7 8 -10 -12 14 -15 -16 -27 0
-11 -6 7 8 -10 -12 -14 15 16 -27 0
-11 -6 7 8 -10 -12 -14 15 -16 -27 0
-11 -6 7 8 -10 -12 -14 -15 16 -27 0
-11 -6 7 8 -10 -12 -14 -15 -16 -27 0
-11 -6 7 -8 10 12 14 15 16 27 0
-11 -6 7 -8 10 12 14 15 -16 27 0
-11 -6 7 -8 10 12 14 -15 16 27 0
-11 -6 7 -8 10 12 14 -15 -16 -27 0
-11 -6 7 -8 10 12 -14 15 16 27 0
-11 -6 7 -8 10 12 -14 15 -16 -27 0
-11 -6 7 -8 10 12 -14 -15 16 -27 0
-11 -6 7 -8 10 12 -14 -15 -16 -27 0
-11 -6 7 -8 10 -12 14 15 16 27 0
-11 -6 7 -8 10 -12 14 15 -16 -27 0
-11 -6 7 -8 10 -12 14 -15 16 -27 0
-11 -6 7 -8 10 -12 14 -15 -16 -27 0
-11 -6 7 -8 10 -12 -14 15 16 -27 0
-11 -6 7 -8 10 -12 -14 15 -16 -27 0
-11 -6 7 -8 10 -12 -14 -15 16 -27 0
-11 -6 7 -8 10 -12 -14 -15 -16 -27 0
-11 -6 7 -8 -10 12 14 15 16 27 0
-11 -6 7 -8 -10 12 14 15 -16 -27 0
-11 -6 7 -8 -10 12 14 -15 16 -27 0
-11 -6 7 -8 -10 12 14 -15 -16 -27 0
-11 -6 7 -8 -10 12 -14 15 16 -27 0
-11 -6 7 -8 -10 12 -14 15 -16 -27 0
-11 -6 7 -8 -10 12 -14 -15 16 -27 0
-11 -6 7 -8 -10 12 -14 -15 -16 -27 0
-11 -6 7 -8 -10 -12 14 15 16 -27 0
-11 -6 7 -8 -10 -12 14 15 -16 -27 0
-11 -6 7 -8 -10 -12 14 -15 16 -27 0
-11 -6 7 -8 -10 -12 14 -15 -16 -27 0
-11 -6 7 -8 -10 -12 -14 15 16 -27 0
-11 -6 7 -8 -10 -12 -14 15 -16 -27 0
-11 -6 7 -8 -10 -12 -14 -15 16 -27 0
-11 -6 7 -8 -10 -12 -14 -15 -16 -27 0
-11 -6 -7 8 10 12 14 15 16 27 0
-11 -6 -7 8 10 12 14 15 -16 27 0
-11 -6 -7 8 10 12 14 -15 16 27 0
-11 -6 -7 8 10 12 14 -15 -16 -27 0
-11 -6 -7 8 10 12 -14 15 16 27 0
-11 -6 -7 8 10 12 -14 15 -16 -27 0
-11 -6 -7 8 10 12 -14 -15 16 -27 0
-11 -6 -7 8 10 12 -14 -15 -16 -27 0
-11 -6 -7 8 10 -12 14 15 16 27 0
-11 -6 -7 8 10 -12 14 15 -16 -27 0
-11 -6 -7 8 10 -12 14 -15 16 -27 0
-11 -6 -7 8 10 -12 14 -15 -16 -27 0
-11 -6 -7 8 10 -12 -14 15 16 -27 0
-11 -6 -7 8 10 -12 -14 15 -16 -27 0
-11 -6 -7 8 10 -12 -14 -15 16 -27 0
-11 -6 -7 8 10 -12 -14 -15 -16 -27 0
-11 -6 -7 8 -10 12 14 15 16 27 0
-11 -6 -7 8 -10 12 14 15 -16 -27 0
-11 -6 -7 8 -10 12 14 -15 16 -27 0
-11 -6 -7 8 -10 12 14 -15 -16 -27 0
-11 -6 -7 8 -10 12 -14 15 16 -27 0
-11 -6 -7 8 -10 12 -14 15 -16 -27 0
-11 -6 -7 8 -10 12 -14 -15 16 -27 0
-11 -6 -7 8 -10 12 -14 -15 -16 -27 0
-11 -6 -7 8 -10 -12 14 15 16 -27 0
-11 -6 -7 8 -10 -12 14 15 -16 -27 0
-11 -6 -7 8 -10 -12 14 -15 16 -27 0
-11 -6 -7 8 -10 -12 14 -15 -16 -27 0
-11 -6 -7 8 -10 -12 -14 15 16 -27 0
-11 -6 -7 8 -10 -12 -14 15 -16 -27 0
-11 -6 -7 8 -10 -12 -14 -15 16 -27 0
-11 -6 -7 8 -10 -12 -14 -15 -16 -27 0
-11 -6 -7 -8 10 12 14 15 16 27 0
-11 -6 -7 -8 10 12 14 15 -16 -27 0
-11 -6 -7 -8 10 12 14 -15 16 -27 0
-11 -6 -7 -8 10 12 14 -15 -16 -27 0
-11 -6 -7 -8 10 12 -14 15 16 -27 0
-11 -6 -7 -8 10 12 -14 15 -16 -27 0
-11 -6 -7 -8 10 12 -14 -15 16 -27 0
-11 -6 -7 -8 10 12 -14 -15 -16 -27 0
-11 -6 -7 -8 10 -12 14 15 16 -27 0
-11 -6 -7 -8 10 -12 14 15 -16 -27 0
-11 -6 -7 -8 10 -12 14 -15 16 -27 0
-11 -6 -7 -8 10 -12 14 -15 -16 -27 0
-11 -6 -7 -8 10 -12 -14 15 16 -27 0
-11 -6 -7 -8 10 -12 -14 15 -16 -27 0
-11 -6 -7 -8 10 -12 -14 -15 16 -27 0
-11 -6 -7 -8 10 -12 -14 -15 -16 -27 0
-11 -6 -7 -8 -10 12 14 15 16 -27 0
-11 -6 -7 -8 -10 12 14 15 -16 -27 0
-11 -6 -7 -8 -10 12 14 -15 16 -27 0
-11 -6 -7 -8 -10 12 14 -15 -16 -27 0
-11 -6 -7 -8 -10 12 -14 15 16 -27 0
-11 -6 -7 -8 -10 12 -14 15 -16 -27 0
-11 -6 -7 -8 -10 12 -14 -15 16 -27 0
-11 -6 -7 -8 -10 12 -14 -15 -16 -27 0
-11 -6 -7 -8 -10 -12 14 15 16 -27 0
-11 -6 -7 -8 -10 -12 14 15 -16 -27 0
-11 -6 -7 -8 -10 -12 14 -15 16 -27 0
-11 -6 -7 -8 -10 -12 14 -15 -16 -27 0
-11 -6 -7 -8 -10 -12 -14 15 16 -27 0
-11 -6 -7 -8 -10 -12 -14 15 -16 -27 0
-11 -6 -7 -8 -10 -12 -14 -15 16 -27 0
-11 -6 -7 -8 -10 -12 -14 -15 -16 -27 0
12 7 8 5 11 9 15 16 13 -28 0
12 7 8 5 11 9 15 16 -13 -28 0
12 7 8 5 11 9 15 -16 13 -28 0
12 7 8 5 11 9 15 -16 -13 -28 0
12 7 8 5 11 9 -15 16 13 -28 0
12 7 8 5 11 9 -15 16 -13 -28 0
12 7 8 5 11 9 -15 -16 13 -28 0
12 7 8 5 11 9 -15 -16 -13 28 0
12 7 8 5 11 -9 15 16 13 -28 0
12 7 8 5 11 -9 15 16 -13 -28 0
12 7 8 5 11 -9 15 -16 13 -28 0
12 7 8 5 11 -9 15 -16 -13 28 0
12 7 8 5 11 -9 -15 16 13 -28 0
12 7 8 5 11 -9 -15 16 -13 28 0
12 7 8 5 11 -9 -15 -16 13 28 0
12 7 8 5 11 -9 -15 -16 -13 -28 0
12 7 8 5 -11 9 15 16 13 -28 0
12 7 8 5 -11 9 15 16 -13 -28 0
12 7 8 5 -11 9 15 -16 13 -28 0
12 7 8 5 -11 9 15 -16 -13 28 0
12 7 8 5 -11 9 -15 16 13 -28 0
12 7 8 5 -11 9 -15 16 -13 28 0
12 7 8 5 -11 9 -15 -16 13 28 0
12 7 8 5 -11 9 -15 -16 -13 -28 0
12 7 8 5 -11 -9 15 16 13 -28 0
12 7 8 5 -11 -9 15 16 -13 28 0
12 7 8 5 -11 -9 15 -16 13 28 0
12 7 8 5 -11 -9 15 -16 -13 -28 0
12 7 8 5 -11 -9 -15 16 13 28 0
12 7 8 5 -11 -9 -15 16 -13 -28 0
12 7 8 5 -11 -9 -15 -16 13 -28 0
12 7 8 5 -11 -9 -15 -16 -13 -28 0
12 7 8 -5 11 9 15 16 13 -28 0
12 7 8 -5 11 9 15 16 -13 -28 0
12 7 8 -5 11 9 15 -16 13 -28 0
12 7 8 -5 11 9 15 -16 -13 28 0
12 7 8 -5 11 9 -15 16 13 -28 0
12 7 8 -5 11 9 -15 16 -13 28 0
12 7 8 -5 11 9 -15 -16 13 28 0
12 7 8 -5 11 9 -15 -16 -13 -28 0
12 7 8 -5 11 -9 15 16 13 -28 0
12 7 8 -5 11 -9 15 16 -13 28 0
12 7 8 -5 11 -9 15 -16 13 28 0
12 7 8 -5 11 -9 15 -16 -13 -28 0
12 7 8 -5 11 -9 -15 16 13 28 0
12 7 8 -5 11 -9 -15 16 -13 -28 0
12 7 8 -5 11 -9 -15 -16 13 -28 0
12 7 8 -5 11 -9 -15 -16 -13 -28 0
12 7 8 -5 -11 9 15 16 13 -28 0
12 7 8 -5 -11 9 15 16 -13 28 0
12 7 8 -5 -11 9 15 -16 13 28 0
12 7 8 -5 -11 9 15 -16 -13 -28 0
12 7 8 -5 -11 9 -15 16 13 28 0
12 7 8 -5 -11 9 -15 16 -13 -28 0
12 7 8 -5 -11 9 -15 -16 13 -28 0
12 7 8 -5 -11 9 -15 -16 -13 -28 0
12 7 8 -5 -11 -9 15 16 13 28 0
12 7 8 -5 -11 -9 15 16 -13 -28 0
12 7 8 -5 -11 -9 15 -16 13 -28 0
12 7 8 -5 -11 -9 15 -16 -13 -28 0
12 7 8 -5 -11 -9 -15 16 13 -28 0
12 7 8 -5 -11 -9 -15 16 -13 -28 0
12 7 8 -5 -11 -9 -15 -16 13 -28 0
12 7 8 -5 -11 -9 -15 -16 -13 -28 0
12 7 -8 5 11 9 15 16 13 -28 0
12 7 -8 5 11 9 15 16 -13 -28 0
12 7 -8 5 11 9 15 -16 13 -28 0
12 7 -8 5 11 9 15 -16 -13 28 0
12 7 -8 5 11 9 -15 16 13 -28 0
12 7 -8 5 11 9 -15 16 -13 28 0
12 7 -8 5 11 9 -15 -16 13 28 0
12 7 -8 5 11 9 -15 -16 -13 -28 0
12 7 -8 5 11 -9 15 16 13 -28 0
12 7 -8 5 11 -9 15 16 -13 28 0
12 7 -8 5 11 -9 15 -16 13 28 0
12 7 -8 5 11 -9 15 -16 -13 -28 0
12 7 -8 5 11 -9 -15 16 13 28 0
12 7 -8 5 11 -9 -15 16 -13 -28 0
12 7 -8 5 11 -9 -15 -16 13 -28 0
12 7 -8 5 11 -9 -15 -16 -13 -28 0
12 7 -8 5 -11 9 15 16 13 -28 0
12 7 -8 5 -11 9 15 16 -13 28 0
12 7 -8 5 -11 9 15 -16 13 28 0
12 7 -8 5 -11 9 15 -16 -13 -28 0
12 7 -8 5 -11 9 -15 16 13 28 0
12 7 -8 5 -11 9 -15 16 -13 -28 0
12 7 -8 5 -11 9 -15 -16 13 -28 0
12 7 -8 5 -11 9 -15 -16 -13 -28 0
12 7 -8 5 -11 -9 15 16 13 28 0
12 7 -8 5 -11 -9 15 16 -13 -28 0
12 7 -8 5 -11 -9 15 -16 13 -28 0
12 7 -8 5 -11 -9 15 -16 -13 -28 0
12 7 -8 5 -11 -9 -15 16 13 -28 0
12 7 -8 5 -11 -9 -15 16 -13 -28 0
12 7 -8 5 -11 -9 -15 -16 13 -28 0
12 7 -8 5 -11 -9 -15 -16 -13 -28 0
12 7 -8 -5 11 9 15 16 13 -28 0
12 7 -8 -5 11 9 15 16 -13 28 0
12 7 -8 -5 11 9 15 -16 13 28 0
12 7 -8 -5 11 9 15 -16 -13 -28 0
12 7 -8 -5 11 9 -15 16 13 28 0
12 7 -8 -5 11 9 -15 16 -13 -28 0
12 7 -8 -5 11 9 -15 -16 13 -28 0
12 7 -8 -5 11 9 -15 -16 -13 -28 0
12 7 -8 -5 11 -9 15 16 13 28 0
12 7 -8 -5 11 -9 15 16 -13 -28 0
12 7 -8 -5 11 -9 15 -16 13 -28 0
12 7 -8 -5 11 -9 15 -16 -13 -28 0
12 7 -8 -5 11 -9 -15 16 13 -28 0
12 7 -8 -5 11 -9 -15 16 -13 -28 0
12 7 -8 -5 11 -9 -15 -16 13 -28 0
12 7 -8 -5 11 -9 -15 -16 -13 -28 0
12 7 -8 -5 -11 9 15 16 13 28 0
12 7 -8 -5 -11 9 15 16 -13 -28 0
12 7 -8 -5 -11 9 15 -16 13 -28 0
12 7 -8 -5 -11 9 15 -16 -13 -28 0
12 7 -8 -5 -11 9 -15 16 13 -28 0
12 7 -8 -5 -11 9 -15 16 -13 -28 0
12 7 -8 -5 -11 9 -15 -16 13 -28 0
12 7 -8 -5 -11 9 -15 -16 -13 -28 0
12 7 -8 -5 -11 -9 15 16 13 -28 0
12 7 -8 -5 -11 -9 15 16 -13 -28 0
12 7 -8 -5 -11 -9 15 -16 13 -28 0
12 7 -8 -5 -11 -9 15 -16 -13 -28 0
12 7 -8 -5 -11 -9 -15 16 13 -28 0
12 7 -8 -5 -11 -9 -15 16 -13 -28 0
12 7 -8 -5 -11 -9 -15 -16 13 -28 0
12 7 -8 -5 -11 -9 -15 -16 -13 -28 0
12 -7 8 5 11 9 15 16 13 -28 0
12 -7 8 5 11 9 15 16 -13 -28 0
12 -7 8 5 11 9 15 -16 13 -28 0
12 -7 8 5 11 9 15 -16 -13 28 0
12 -7 8 5 11 9 -15 16 13 -28 0
12 -7 8 5 11 9 -15 16 -13 28 0
12 -7 8 5 11 9 -15 -16 13 28 0
12 -7 8 5 11 9 -15 -16 -13 -28 0
12 -7 8 5 11 -9 15 16 13 -28 0
12 -7 8 5 11 -9 15 16 -13 28 0
12 -7 8 5 11 -9 15 -16 13 28 0
12 -7 8 5 11 -9 15 -16 -13 -28 0
12 -7 8 5 11 -9 -15 16 13 28 0
12 -7 8 5 11 -9 -15 16 -13 -28 0
12 -7 8 5 11 -9 -15 -16 13 -28 0
12 -7 8 5 11 -9 -15 -16 -13 -28 0
12 -7 8 5 -11 9 15 16 13 -28 0
12 -7 8 5 -11 9 15 16 -13 28 0
12 -7 8 5 -11 9 15 -16 13 28 0
12 -7 8 5 -11 9 15 -16 -13 -28 0
12 -7 8 5 -11 9 -15 16 13 28 0
12 -7 8 5 -11 9 -15 16 -13 -28 0
12 -7 8 5 -11 9 -15 -16 13 -28 0
12 -7 8 5 -11 9 -15 -16 -13 -28 0
12 -7 8 5 -11 -9 15 16 13 28 0
12 -7 8 5 -11 -9 15 16 -13 -28 0
12 -7 8 5 -11 -9 15 -16 13 -28 0
12 -7 8 5 -11 -9 15 -16 -13 -28 0
12 -7 8 5 -11 -9 -15 16 13 -28 0
12 -7 8 5 -11 -9 -15 16 -13 -28 0
12 -7 8 5 -11 -9 -15 -16 13 -28 0
12 -7 8 5 -11 -9 -15 -16 -13 -28 0
12 -7 8 -5 11 9 15 16 13 -28 0
12 -7 8 -5 11 9 15 16 -13 28 0
12 -7 8 -5 11 9 15 -16 13 28 0
12 -7 8 -5 11 9 15 -16 -13 -28 0
12 -7 8 -5 11 9 -15 16 13 28 0
12 -7 8 -5 11 9 -15 16 -13 -28 0
12 -7 8 -5 11 9 -15 -16 13 -28 0
12 -7 8 -5 11 9 -15 -16 -13 -28 0
12 -7 8 -5 11 -9 15 16 13 28 0
12 -7 8 -5 11 -9 15 16 -13 -28 0
12 -7 8 -5 11 -9 15 -16 13 -28 0
12 -7 8 -5 11 -9 15 -16 -13 -28 0
12 -7 8 -5 11 -9 -15 16 13 -28 0
12 -7 8 -5 11 -9 -15 16 -13 -28 0
12 -7 8 -5 11 -9 -15 -16 13 -28 0
12 -7 8 -5 11 -9 -15 -16 -13 -28 0
12 -7 8 -5 -11 9 15 16 13 28 0
12 -7 8 -5 -11 9 15 16 -13 -28 0
12 -7 8 -5 -11 9 15 -16 13 -28 0
12 -7 8 -5 -11 9 15 -16 -13 -28 0
12 -7 8 -5 -11 9 -15 16 13 -28 0
12 -7 8 -5 -11 9 -15 16 -13 -28 0
12 -7 8 -5 -11 9 -15 -16 13 -28 0
12 -7 8 -5 -11 9 -15 -16 -13 -28 0
12 -7 8 -5 -11 -9 15 16 13 -28 0
12 -7 8 -5 -11 -9 15 16 -13 -28 0
12 -7 8 -5 -11 -9 15 -16 13 -28 0
12 -7 8 -5 -11 -9 15 -16 -13 -28 0
12 -7 8 -5 -11 -9 -15 16 13 -28 0
12 -7 8 -5 -11 -9 -15 16 -13 -28 0
12 -7 8 -5 -11 -9 -15 -16 13 -28 0
12 -7 8 -5 -11 -9 -15 -16 -13 -28 0
12 -7 -8 5 11 9 15 16 13 -28 0
12 -7 -8 5 11 9 15 16 -13 28 0
12 -7 -8 5 11 9 15 -16 13 28 0
12 -7 -8 5 11 9 15 -16 -13 -28 0
12 -7 -8 5 11 9 -15 16 13 28 0
12 -7 -8 5 11 9 -15 16 -13 -28 0
12 -7 -8 5 11 9 -15 -16 13 -28 0
12 -7 -8 5 11 9 -15 -16 -13 -28 0
12 -7 -8 5 11 -9 15 16 13 28 0
12 -7 -8 5 11 -9 15 16 -13 -28 0
12 -7 -8 5 11 -9 15 -16 13 -28 0
12 -7 -8 5 11 -9 15 -16 -13 -28 0
12 -7 -8 5 11 -9 -15 16 13 -28 0
12 -7 -8 5 11 -9 -15 16 -13 -28 0
12 -7 -8 5 11 -9 -15 -16 13 -28 0
12 -7 -8 5 11 -9 -15 -16 -13 -28 0
12 -7 -8 5 -11 9 15 16 13 28 0
12 -7 -8 5 -11 9 15 16 -13 -28 0
12 -7 -8 5 -11 9 15 -16 13 -28 0
12 -7 -8 5 -11 9 15 -16 -13 -28 0
12 -7 -8 5 -11 9 -15 16 13 -28 0
12 -7 -8 5 -11 9 -15 16 -13 -28 0
12 -7 -8 5 -11 9 -15 -16 13 -28 0
12 -7 -8 5 -11 9 -15 -16 -13 -28 0
12 -7 -8 5 -11 -9 15 16 13 -28 0
12 -7 -8 5 -11 -9 15 16 -13 -28 0
12 -7 -8 5 -11 -9 15 -16 13 -28 0
12 -7 -8 5 -11 -9 15 -16 -13 -28 0
12 -7 -8 5 -11 -9 -15 16 13 -28 0
12 -7 -8 5 -11 -9 -15 16 -13 -28 0
12 -7 -8 5 -11 -9 -15 -16 13 -28 0
12 -7 -8 5 -11 -9 -15 -16 -13 -28 0
12 -7 -8 -5 11 9 15 16 13 28 0
12 -7 -8 -5 11 9 15 16 -13 -28 0
12 -7 -8 -5 11 9 15 -16 13 -28 0
12 -7 -8 -5 11 9 15 -16 -13 -28 0
12 -7 -8 -5 11 9 -15 16 13 -28 0
12 -7 -8 -5 11 9 -15 16 -13 -28 0
12 -7 -8 -5 11 9 -15 -16 13 -28 0
12 -7 -8 -5 11 9 -15 -16 -13 -28 0
12 -7 -8 -5 11 -9 15 16 13 -28 0
12 -7 -8 -5 11 -9 15 16 -13 -28 0
12 -7 -8 -5 11 -9 15 -16 13 -28 0
12 -7 -8 -5 11 -9 15 -16 -13 -28 0
12 -7 -8 -5 11 -9 -15 16 13 -28 0
12 -7 -8 -5 11 -9 -15 16 -13 -28 0
12 -7 -8 -5 11 -9 -15 -16 13 -28 0
12 -7 -8 -5 11 -9 -15 -16 -13 -28 0
12 -7 -8 -5 -11 9 15 16 13 -28 0
12 -7 -8 -5 -11 9 15 16 -13 -28 0
12 -7 -8 -5 -11 9 15 -16 13 -28 0
12 -7 -8 -5 -11 9 15 -16 -13 -28 0
12 -7 -8 -5 -11 9 -15 16 13 -28 0
12 -7 -8 -5 -11 9 -15 16 -13 -28 0
12 -7 -8 -5 -11 9 -15 -16 13 -28 0
12 -7 -8 -5 -11 9 -15 -16 -13 -28 0
12 -7 -8 -5 -11 -9 15 16 13 -28 0
12 -7 -8 -5 -11 -9 15 16 -13 -28 0
12 -7 -8 -5 -11 -9 15 -16 13 -28 0
12 -7 -8 -5 -11 -9 15 -16 -13 -28 0
12 -7 -8 -5 -11 -9 -15 16 13 -28 0
12 -7 -8 -5 -11 -9 -15 16 -13 -28 0
12 -7 -8 -5 -11 -9 -15 -16 13 -28 0
12 -7 -8 -5 -11 -9 -15 -16 -13 -28 0
-12 7 8 5 11 9 15 16 13 -28 0
-12 7 8 5 11 9 15 16 -13 -28 0
-12 7 8 5 11 9 15 -16 13 -28 0
-12 7 8 5 11 9 15 -16 -13 28 0
-12 7 8 5 11 9 -15 16 13 -28 0
-12 7 8 5 11 9 -15 16 -13 28 0
-12 7 8 5 11 9 -15 -16 13 28 0
-12 7 8 5 11 9 -15 -16 -13 28 0
-12 7 8 5 11 -9 15 16 13 -28 0
-12 7 8 5 11 -9 15 16 -13 28 0
-12 7 8 5 11 -9 15 -16 13 28 0
-12 7 8 5 11 -9 15 -16 -13 28 0
-12 7 8 5 11 -9 -15 16 13 28 0
-12 7 8 5 11 -9 -15 16 -13 28 0
-12 7 8 5 11 -9 -15 -16 13 28 0
-12 7 8 5 11 -9 -15 -16 -13 -28 0
-12 7 8 5 -11 9 15 16 13 -28 0
-12 7 8 5 -11 9 15 16 -13 28 0
-12 7 8 5 -11 9 15 -16 13 28 0
-12 7 8 5 -11 9 15 -16 -13 28 0
-12 7 8 5 -11 9 -15 16 13 28 0
-12 7 8 5 -11 9 -15 16 -13 28 0
-12 7 8 5 -11 9 -15 -16 13 28 0
-12 7 8 5 -11 9 -15 -16 -13 -28 0
-12 7 8 5 -11 -9 15 16 13 28 0
-12 7 8 5 -11 -9 15 16 -13 28 0
-12 7 8 5 -11 -9 15 -16 13 28 0
-12 7 8 5 -11 -9 15 -16 -13 -28 0
-12 7 8 5 -11 -9 -15 16 13 28 0
-12 7 8 5 -11 -9 -15 16 -13 -28 0
-12 7 8 5 -11 -9 -15 -16 13 -28 0
-12 7 8 5 -11 -9 -15 -16 -13 -28 0
-12 7 8 -5 11 9 15 16 13 -28 0
-12 7 8 -5 11 9 15 16 -13 28 0
-12 7 8 -5 11 9 15 -16 13 28 0
-12 7 8 -5 11 9 15 -16 -13 28 0
-12 7 8 -5 11 9 -15 16 13 28 0
-12 7 8 -5 11 9 -15 16 -13 28 0
-12 7 8 -5 11 9 -15 -16 13 28 0
-12 7 8 -5 11 9 -15 -16 -13 -28 0
-12 7 8 -5 11 -9 15 16 13 28 0
-12 7 8 -5 11 -9 15 16 -13 28 0
-12 7 8 -5 11 -9 15 -16 13 28 0
-12 7 8 -5 11 -9 15 -16 -13 -28 0
-12 7 8 -5 11 -9 -15 16 13 28 0
-12 7 8 -5 11 -9 -15 16 -13 -28 0
-12 7 8 -5 11 -9 -15 -16 13 -28 0
-12 7 8 -5 11 -9 -15 -16 -13 -28 0
-12 7 8 -5 -11 9 15 16 13 28 0
-12 7 8 -5 -11 9 15 16 -13 28 0
-12 7 8 -5 -11 9 15 -16 13 28 0
-12 7 8 -5 -11 9 15 -16 -13 -28 0
-12 7 8 -5 -11 9 -15 16 13 28 0
-12 7 8 -5 -11 9 -15 16 -13 -28 0
-12 7 8 -5 -11 9 -15 -16 13 -28 0
-12 7 8 -5 -11 9 -15 -16 -13 -28 0
-12 7 8 -5 -11 -9 15 16 13 28 0
-12 7 8 -5 -11 -9 15 16 -13 -28 0
-12 7 8 -5 -11 -9 15 -16 13 -28 0
-12 7 8 -5 -11 -9 15 -16 -13 -28 0
-12 7 8 -5 -11 -9 -15 16 13 -28 0
-12 7 8 -5 -11 -9 -15 16 -13 -28 0
-12 7 8 -5 -11 -9 -15 -16 13 -28 0
-12 7 8 -5 -11 -9 -15 -16 -13 -28 0
-12 7 -8 5 11 9 15 16 13 -28 0
-12 7 -8 5 11 9 15 16 -13 28 0
-12 7 -8 5 11 9 15 -16 13 28 0
-12 7 -8 5 11 9 15 -16 -13 28 0
-12 7 -8 5 11 9 -15 16 13 28 0
-12 7 -8 5 11 9 -15 16 -13 28 0
-12 7 -8 5 11 9 -15 -16 13 28 0
-12 7 -8 5 11 9 -15 -16 -13 -28 0
-12 7 -8 5 11 -9 15 16 13 28 0
-12 7 -8 5 11 -9 15 16 -13 28 0
-12 7 -8 5 11 -9 15 -16 13 28 0
-12 7 -8 5 11 -9 15 -16 -13 -28 0
-12 7 -8 5 11 -9 -15 16 13 28 0
-12 7 -8 5 11 -9 -15 16 -13 -28 0
-12 7 -8 5 11 -9 -15 -16 13 -28 0
-12 7 -8 5 11 -9 -15 -16 -13 -28 0
-12 7 -8 5 -11 9 15 16 13 28 0
-12 7 -8 5 -11 9 15 16 -13 28 0
-12 7 -8 5 -11 9 15 -16 13 28 0
-12 7 -8 5 -11 9 15 -16 -13 -28 0
-12 7 -8 5 -11 9 -15 16 13 28 0
-12 7 -8 5 -11 9 -15 16 -13 -28 0
-12 7 -8 5 -11 9 -15 -16 13 -28 0
-12 7 -8 5 -11 9 -15 -16 -13 -28 0
-12 7 -8 5 -11 -9 15 16 13 28 0
-12 7 -8 5 -11 -9 15 16 -13 -28 0
-12 7 -8 5 -11 -9 15 -16 13 -28 0
-12 7 -8 5 -11 -9 15 -16 -13 -28 0
-12 7 -8 5 -11 -9 -15 16 13 -28 0
-12 7 -8 5 -11 -9 -15 16 -13 -28 0
-12 7 -8 5 -11 -9 -15 -16 13 -28 0
-12 7 -8 5 -11 -9 -15 -16 -13 -28 0
-12 7 -8 -5 11 9 15 16 13 28 0
-12 7 -8 -5 11 9 15 16 -13 28 0
-12 7 -8 -5 11 9 15 -16 13 28 0
-12 7 -8 -5 11 9 15 -16 -13 -28 0
-12 7 -8 -5 11 9 -15 16 13 28 0
-12 7 -8 -5 11 9 -15 16 -13 -28 0
-12 7 -8 -5 11 9 -15 -16 13 -28 0
-12 7 -8 -5 11 9 -15 -16 -13 -28 0
-12 7 -8 -5 11 -9 15 16 13 28 0
-12 7 -8 -5 11 -9 15 16 -13 -28 0
-12 7 -8 -5 11 -9 15 -16 13 -28 0
-12 7 -8 -5 11 -9 15 -16 -13 -28 0
-12 7 -8 -5 11 -9 -15 16 13 -28 0
-12 7 -8 -5 11 -9 -15 16 -13 -28 0
-12 7 -8 -5 11 -9 -15 -16 13 -28 0
-12 7 -8 -5 11 -9 -15 -16 -13 -28 0
-12 7 -8 -5 -11 9 15 16 13 28 0
-12 7 -8 -5 -11 9 15 16 -13 -28 0
-12 7 -8 -5 -11 9 15 -16 13 -28 0
-12 7 -8 -5 -11 9 15 -16 -13 -28 0
-12 7 -8 -5 -11 9 -15 16 13 -28 0
-12 7 -8 -5 -11 9 -15 16 -13 -28 0
-12 7 -8 -5 -11 9 -15 -16 13 -28 0
-12 7 -8 -5 -11 9 -15 -16 -13 -28 0
-12 7 -8 -5 -11 -9 15 16 13 -28 0
-12 7 -8 -5 -11 -9 15 16 -13 -28 0
-12 7 -8 -5 -11 -9 15 -16 13 -28 0
-12 7 -8 -5 -11 -9 15 -16 -13 -28 0
-12 7 -8 -5 -11 -9 -15 16 13 -28 0
-12 7 -8 -5 -11 -9 -15 16 -13 -28 0
-12 7 -8 -5 -11 -9 -15 -16 13 -28 0
-12 7 -8 -5 -11 -9 -15 -16 -13 -28 0
-12 -7 8 5 11 9 15 16 13 -28 0
-12 -7 8 5 11 9 15 16 -13 28 0
-12 -7 8 5 11 9 15 -16 13 28 0
-12 -7 8 5 11 9 15 -16 -13 28 0
-12 -7 8 5 11 9 -15 16 13 28 0
-12 -7 8 5 11 9 -15 16 -13 28 0
-12 -7 8 5 11 9 -15 -16 13 28 0
-12 -7 8 5 11 9 -15 -16 -13 -28 0
-12 -7 8 5 11 -9 15 16 13 28 0
-12 -7 8 5 11 -9 15 16 -13 28 0
-12 -7 8 5 11 -9 15 -16 13 28 0
-12 -7 8 5 11 -9 15 -16 -13 -28 0
-12 -7 8 5 11 -9 -15 16 13 28 0
-12 -7 8 5 11 -9 -15 16 -13 -28 0
-12 -7 8 5 11 -9 -15 -16 13 -28 0
-12 -7 8 5 11 -9 -15 -16 -13 -28 0
-12 -7 8 5 -11 9 15 16 13 28 0
-12 -7 8 5 -11 9 15 16 -13 28 0
-12 -7 8 5 -11 9 15 -16 13 28 0
-12 -7 8 5 -11 9 15 -16 -13 -28 0
-12 -7 8 5 -11 9 -15 16 13 28 0
-12 -7 8 5 -11 9 -15 16 -13 -28 0
-12 -7 8 5 -11 9 -15 -16 13 -28 0
-12 -7 8 5 -11 9 -15 -16 -13 -28 0
-12 -7 8 5 -11 -9 15 16 13 28 0
-12 -7 8 5 -11 -9 15 16 -13 -28 0
-12 -7 8 5 -11 -9 15 -16 13 -28 0
-12 -7 8 5 -11 -9 15 -16 -13 -28 0
-12 -7 8 5 -11 -9 -15 16 13 -28 0
-12 -7 8 5 -11 -9 -15 16 -13 -28 0
-12 -7 8 5 -11 -9 -15 -16 13 -28 0
-12 -7 8 5 -11 -9 -15 -16 -13 -28 0
-12 -7 8 -5 11 9 15 16 13 28 0
-12 -7 8 -5 11 9 15 16 -13 28 0
-12 -7 8 -5 11 9 15 -16 13 28 0
-12 -7 8 -5 11 9 15 -16 -13 -28 0
-12 -7 8 -5 11 9 -15 16 13 28 0
-12 -7 8 -5 11 9 -15 16 -13 -28 0
-12 -7 8 -5 11 9 -15 -16 13 -28 0
-12 -7 8 -5 11 9 -15 -16 -13 -28 0
-12 -7 8 -5 11 -9 15 16 13 28 0
-12 -7 8 -5 11 -9 15 16 -13 -28 0
-12 -7 8 -5 11 -9 15 -16 13 -28 0
-12 -7 8 -5 11 -9 15 -16 -13 -28 0
-12 -7 8 -5 11 -9 -15 16 13 -28 0
-12 -7 8 -5 11 -9 -15 16 -13 -28 0
-12 -7 8 -5 11 -9 -15 -16 13 -28 0
-12 -7 8 -5 11 -9 -15 -16 -13 -28 0
-12 -7 8 -5 -11 9 15 16 13 28 0
-12 -7 8 -5 -11 9 15 16 -13 -28 0
-12 -7 8 -5 -11 9 15 -16 13 -28 0
-12 -7 8 -5 -11 9 15 -16 -13 -28 0
-12 -7 8 -5 -11 9 -15 16 13 -28 0
-12 -7 8 -5 -11 9 -15 16 -13 -28 0
-12 -7 8 -5 -11 9 -15 -16 13 -28 0
-12 -7 8 -5 -11 9 -15 -16 -13 -28 0
-12 -7 8 -5 -11 -9 15 16 13 -28 0
-12 -7 8 -5 -11 -9 15 16 -13 -28 0
-12 -7 8 -5 -11 -9 15 -16 13 -28 0
-12 -7 8 -5 -11 -9 15 -16 -13 -28 0
-12 -7 8 -5 -11 -9 -15 16 13 -28 0
-12 -7 8 -5 -11 -9 -15 16 -13 -28 0
-12 -7 8 -5 -11 -9 -15 -16 13 -28 0
-12 -7 8 -5 -11 -9 -15 -16 -13 -28 0
-12 -7 -8 5 11 9 15 16 13 28 0
-12 -7 -8 5 11 9 15 16 -13 28 0
-12 -7 -8 5 11 9 15 -16 13 28 0
-12 -7 -8 5 11 9 15 -16 -13 -28 0
-12 -7 -8 5 11 9 -15 16 13 28 0
-12 -7 -8 5 11 9 -15 16 -13 -28 0
-12 -7 -8 5 11 9 -15 -16 13 -28 0
-12 -7 -8 5 11 9 -15 -16 -13 -28 0
-12 -7 -8 5 11 -9 15 16 13 28 0
-12 -7 -8 5 11 -9 15 16 -13 -28 0
-12 -7 -8 5 11 -9 15 -16 13 -28 0
-12 -7 -8 5 11 -9 15 -16 -13 -28 0
-12 -7 -8 5 11 -9 -15 16 13 -28 0
-12 -7 -8 5 11 -9 -15 16 -13 -28 0
-12 -7 -8 5 11 -9 -15 -16 13 -28 0
-12 -7 -8 5 11 -9 -15 -16 -13 -28 0
-12 -7 -8 5 -11 9 15 16 13 28 0
-12 -7 -8 5 -11 9 15 16 -13 -28 0
-12 -7 -8 5 -11 9 15 -16 13 -28 0
-12 -7 -8 5 -11 9 15 -16 -13 -28 0
-12 -7 -8 5 -11 9 -15 16 13 -28 0
-12 -7 -8 5 -11 9 -15 16 -13 -28 0
-12 -7 -8 5 -11 9 -15 -16 13 -28 0
-12 -7 -8 5 -11 9 -15 -16 -13 -28 0
-12 -7 -8 5 -11 -9 15 16 13 -28 0
-12 -7 -8 5 -11 -9 15 16 -13 -28 0
-12 -7 -8 5 -11 -9 15 -16 13 -28 0
-12 -7 -8 5 -11 -9 15 -16 -13 -28 0
-12 -7 -8 5 -11 -9 -15 16 13 -28 0
-12 -7 -8 5 -11 -9 -15 16 -13 -28 0
-12 -7 -8 5 -11 -9 -15 -16 13 -28 0
-12 -7 -8 5 -11 -9 -15 -16 -13 -28 0
-12 -7 -8 -5 11 9 15 16 13 28 0
-12 -7 -8 -5 11 9 15 16 -13 -28 0
-12 -7 -8 -5 11 9 15 -16 13 -28 0
-12 -7 -8 -5 11 9 15 -16 -13 -28 0
-12 -7 -8 -5 11 9 -15 16 13 -28 0
-12 -7 -8 -5 11 9 -15 16 -13 -28 0
-12 -7 -8 -5 11 9 -15 -16 13 -28 0
-12 -7 -8 -5 11 9 -15 -16 -13 -28 0
-12 -7 -8 -5 11 -9 15 16 13 -28 0
-12 -7 -8 -5 11 -9 15 16 -13 -28 0
-12 -7 -8 -5 11 -9 15 -16 13 -28 0
-12 -7 -8 -5 11 -9 15 -16 -13 -28 0
-12 -7 -8 -5 11 -9 -15 16 13 -28 0
-12 -7 -8 -5 11 -9 -15 16 -13 -28 0
-12 -7 -8 -5 11 -9 -15 -16 13 -28 0
-12 -7 -8 -5 11 -9 -15 -16 -13 -28 0
-12 -7 -8 -5 -11 9 15 16 13 -28 0
-12 -7 -8 -5 -11 9 15 16 -13 -28 0
-12 -7 -8 -5 -11 9 15 -16 13 -28 0
-12 -7 -8 -5 -11 9 15 -16 -13 -28 0
-12 -7 -8 -5 -11 9 -15 16 13 -28 0
-12 -7 -8 -5 -11 9 -15 16 -13 -28 0
-12 -7 -8 -5 -11 9 -15 -16 13 -28 0
-12 -7 -8 -5 -11 9 -15 -16 -13 -28 0
-12 -7 -8 -5 -11 -9 15 16 13 -28 0
-12 -7 -8 -5 -11 -9 15 16 -13 -28 0
-12 -7 -8 -5 -11 -9 15 -16 13 -28 0
-12 -7 -8 -5 -11 -9 15 -16 -13 -28 0
-12 -7 -8 -5 -11 -9 -15 16 13 -28 0
-12 -7 -8 -5 -11 -9 -15 16 -13 -28 0
-12 -7 -8 -5 -11 -9 -15 -16 13 -28 0
-12 -7 -8 -5 -11 -9 -15 -16 -13 -28 0
13 12 9 10 16 14 4 1 2 -29 0
13 12 9 10 16 14 4 1 -2 -29 0
13 12 9 10 16 14 4 -1 2 -29 0
13 12 9 10 16 14 4 -1 -2 -29 0
13 12 9 10 16 14 -4 1 2 -29 0
13 12 9 10 16 14 -4 1 -2 -29 0
13 12 9 10 16 14 -4 -1 2 -29 0
13 12 9 10 16 14 -4 -1 -2 29 0
13 12 9 10 16 -14 4 1 2 -29 0
13 12 9 10 16 -14 4 1 -2 -29 0
13 12 9 10 16 -14 4 -1 2 -29 0
13 12 9 10 16 -14 4 -1 -2 29 0
13 12 9 10 16 -14 -4 1 2 -29 0
13 12 9 10 16 -14 -4 1 -2 29 0
13 12 9 10 16 -14 -4 -1 2 29 0
13 12 9 10 16 -14 -4 -1 -2 -29 0
13 12 9 10 -16 14 4 1 2 -29 0
13 12 9 10 -16 14 4 1 -2 -29 0
13 12 9 10 -16 14 4 -1 2 -29 0
13 12 9 10 -16 14 4 -1 -2 29 0
13 12 9 10 -16 14 -4 1 2 -29 0
13 12 9 10 -16 14 -4 1 -2 29 0
13 12 9 10 -16 14 -4 -1 2 29 0
13 12 9 10 -16 14 -4 -1 -2 -29 0
13 12 9 10 -16 -14 4 1 2 -29 0
13 12 9 10 -16 -14 4 1 -2 29 0
13 12 9 10 -16 -14 4 -1 2 29 0
13 12 9 10 -16 -14 4 -1 -2 -29 0
13 12 9 10 -16 -14 -4 1 2 29 0
13 12 9 10 -16 -14 -4 1 -2 -29 0
13 12 9 10 -16 -14 -4 -1 2 -29 0
13 12 9 10 -16 -14 -4 -1 -2 -29 0
13 12 9 -10 16 14 4 1 2 -29 0
13 12 9 -10 16 14 4 1 -2 -29 0
13 12 9 -10 16 14 4 -1 2 -29 0
13 12 9 -10 16 14 4 -1 -2 29 0
13 12 9 -10 16 14 -4 1 2 -29 0
13 12 9 -10 16 14 -4 1 -2 29 0
13 12 9 -10 16 14 -4 -1 2 29 0
13 12 9 -10 16 14 -4 -1 -2 -29 0
13 12 9 -10 16 -14 4 1 2 -29 0
13 12 9 -10 16 -14 4 1 -2 29 0
13 12 9 -10 16 -14 4 -1 2 29 0
13 12 9 -10 16 -14 4 -1 -2 -29 0
13 12 9 -10 16 -14 -4 1 2 29 0
13 12 9 -10 16 -14 -4 1 -2 -29 0
13 12 9 -10 16 -14 -4 -1 2 -29 0
13 12 9 -10 16 -14 -4 -1 -2 -29 0
13 12 9 -10 -16 14 4 1 2 -29 0
13 12 9 -10 -16 14 4 1 -2 29 0
13 12 9 -10 -16 14 4 -1 2 29 0
13 12 9 -10 -16 14 4 -1 -2 -29 0
13 12 9 -10 -16 14 -4 1 2 29 0
13 12 9 -10 -16 14 -4 1 -2 -29 0
13 12 9 -10 -16 14 -4 -1 2 -29 0
13 12 9 -10 -16 14 -4 -1 -2 -29 0
13 12 9 -10 -16 -14 4 1 2 29 0
13 12 9 -10 -16 -14 4 1 -2 -29 0
13 12 9 -10 -16 -14 4 -1 2 -29 0
13 12 9 -10 -16 -14 4 -1 -2 -29 0
13 12 9 -10 -16 -14 -4 1 2 -29 0
13 12 9 -10 -16 -14 -4 1 -2 -29 0
13 12 9 -10 -16 -14 -4 -1 2 -29 0
13 12 9 -10 -16 -14 -4 -1 -2 -29 0
13 12 -9 10 16 14 4 1 2 -29 0
13 12 -9 10 16 14 4 1 -2 -29 0
13 12 -9 10 16 14 4 -1 2 -29 0
13 12 -9 10 16 14 4 -1 -2 29 0
13 12 -9 10 16 14 -4 1 2 -29 0
13 12 -9 10 16 14 -4 1 -2 29 0
13 12 -9 10 16 14 -4 -1 2 29 0
13 12 -9 10 16 14 -4 -1 -2 -29 0
13 12 -9 10 16 -14 4 1 2 -29 0
13 12 -9 10 16 -14 4 1 -2 29 0
13 12 -9 10 16 -14 4 -1 2 29 0
13 12 -9 10 16 -14 4 -1 -2 -29 0
13 12 -9 10 16 -14 -4 1 2 29 0
13 12 -9 10 16 -14 -4 1 -2 -29 0
13 12 -9 10 16 -14 -4 -1 2 -29 0
13 12 -9 10 16 -14 -4 -1 -2 -29 0
13 12 -9 10 -16 14 4 1 2 -29 0
13 12 -9 10 -16 14 4 1 -2 29 0
13 12 -9 10 -16 14 4 -1 2 29 0
13 12 -9 10 -16 14 4 -1 -2 -29 0
13 12 -9 10 -16 14 -4 1 2 29 0
13 12 -9 10 -16 14 -4 1 -2 -29 0
13 12 -9 10 -16 14 -4 -1 2 -29 0
13 12 -9 10 -16 14 -4 -1 -2 -29 0
13 12 -9 10 -16 -14 4 1 2 29 0
13 12 -9 10 -16 -14 4 1 -2 -29 0
13 12 -9 10 -16 -14 4 -1 2 -29 0
13 12 -9 10 -16 -14 4 -1 -2 -29 0
13 12 -9 10 -16 -14 -4 1 2 -29 0
13 12 -9 10 -16 -14 -4 1 -2 -29 0
13 12 -9 10 -16 -14 -4 -1 2 -29 0
13 12 -9 10 -16 -14 -4 -1 -2 -29 0
13 12 -9 -10 16 14 4 1 2 -29 0
13 12 -9 -10 16 14 4 1 -2 29 0
13 12 -9 -10 16 14 4 -1 2 29 0
13 12 -9 -10 16 14 4 -1 -2 -29 0
13 12 -9 -10 16 14 -4 1 2 29 0
13 12 -9 -10 16 14 -4 1 -2 -29 0
13 12 -9 -10 16 14 -4 -1 2 -29 0
13 12 -9 -10 16 14 -4 -1 -2 -29 0
13 12 -9 -10 16 -14 4 1 2 29 0
13 12 -9 -10 16 -14 4 1 -2 -29 0
13 12 -9 -10 16 -14 4 -1 2 -29 0
13 12 -9 -10 16 -14 4 -1 -2 -29 0
13 12 -9 -10 16 -14 -4 1 2 -29 0
13 12 -9 -10 16 -14 -4 1 -2 -29 0
13 12 -9 -10 16 -14 -4 -1 2 -29 0
13 12 -9 -10 16 -14 -4 -1 -2 -29 0
13 12 -9 -10 -16 14 4 1 2 29 0
13 12 -9 -10 -16 14 4 1 -2 -29 0
13 12 -9 -10 -16 14 4 -1 2 -29 0
13 12 -9 -10 -16 14 4 -1 -2 -29 0
13 12 -9 -10 -16 14 -4 1 2 -29 0
13 12 -9 -10 -16 14 -4 1 -2 -29 0
13 12 -9 -10 -16 14 -4 -1 2 -29 0
13 12 -9 -10 -16 14 -4 -1 -2 -29 0
13 12 -9 -10 -16 -14 4 1 2 -29 0
13 12 -9 -10 -16 -14 4 1 -2 -29 0
13 12 -9 -10 -16 -14 4 -1 2 -29 0
13 12 -9 -10 -16 -14 4 -1 -2 -29 0
13 12 -9 -10 -16 -14 -4 1 2 -29 0
13 12 -9 -10 -16 -14 -4 1 -2 -29 0
13 12 -9 -10 -16 -14 -4 -1 2 -29 0
13 12 -9 -10 -16 -14 -4 -1 -2 -29 0
13 -12 9 10 16 14 4 1 2 -29 0
13 -12 9 10 16 14 4 1 -2 -29 0
13 -12 9 10 16 14 4 -1 2 -29 0
13 -12 9 10 16 14 4 -1 -2 29 0
13 -12 9 10 16 14 -4 1 2 -29 0
13 -12 9 10 16 14 -4 1 -2 29 0
13 -12 9 10 16 14 -4 -1 2 29 0
13 -12 9 10 16 14 -4 -1 -2 -29 0
13 -12 9 10 16 -14 4 1 2 -29 0
13 -12 9 10 16 -14 4 1 -2 29 0
13 -12 9 10 16 -14 4 -1 2 29 0
13 -12 9 10 16 -14 4 -1 -2 -29 0
13 -12 9 10 16 -14 -4 1 2 29 0
13 -12 9 10 16 -14 -4 1 -2 -29 0
13 -12 9 10 16 -14 -4 -1 2 -29 0
13 -12 9 10 16 -14 -4 -1 -2 -29 0
13 -12 9 10 -16 14 4 1 2 -29 0
13 -12 9 10 -16 14 4 1 -2 29 0
13 -12 9 10 -16 14 4 -1 2 29 0
13 -12 9 10 -16 14 4 -1 -2 -29 0
13 -12 9 10 -16 14 -4 1 2 29 0
13 -12 9 10 -16 14 -4 1 -2 -29 0
13 -12 9 10 -16 14 -4 -1 2 -29 0
13 -12 9 10 -16 14 -4 -1 -2 -29 0
13 -12 9 10 -16 -14 4 1 2 29 0
13 -12 9 10 -16 -14 4 1 -2 -29 0
13 -12 9 10 -16 -14 4 -1 2 -29 0
13 -12 9 10 -16 -14 4 -1 -2 -29 0
13 -12 9 10 -16 -14 -4 1 2 -29 0
13 -12 9 10 -16 -14 -4 1 -2 -29 0
13 -12 9 10 -16 -14 -4 -1 2 -29 0
13 -12 9 10 -16 -14 -4 -1 -2 -29 0
13 -12 9 -10 16 14 4 1 2 -29 0
13 -12 9 -10 16 14 4 1 -2 29 0
13 -12 9 -10 16 14 4 -1 2 29 0
13 -12 9 -10 16 14 4 -1 -2 -29 0
13 -12 9 -10 16 14 -4 1 2 29 0
13 -12 9 -10 16 14 -4 1 -2 -29 0
13 -12 9 -10 16 14 -4 -1 2 -29 0
13 -12 9 -10 16 14 -4 -1 -2 -29 0
13 -12 9 -10 16 -14 4 1 2 29 0
13 -12 9 -10 16 -14 4 1 -2 -29 0
13 -12 9 -10 16 -14 4 -1 2 -29 0
13 -12 9 -10 16 -14 4 -1 -2 -29 0
13 -12 9 -10 16 -14 -4 1 2 -29 0
13 -12 9 -10 16 -14 -4 1 -2 -29 0
13 -12 9 -10 16 -14 -4 -1 2 -29 0
13 -12 9 -10 16 -14 -4 -1 -2 -29 0
13 -12 9 -10 -16 14 4 1 2 29 0
13 -12 9 -10 -16 14 4 1 -2 -29 0
13 -12 9 -10 -16 14 4 -1 2 -29 0
13 -12 9 -10 -16 14 4 -1 -2 -29 0
13 -12 9 -10 -16 14 -4 1 2 -29 0
13 -12 9 -10 -16 14 -4 1 -2 -29 0
13 -12 9 -10 -16 14 -4 -1 2 -29 0
13 -12 9 -10 -16 14 -4 -1 -2 -29 0
13 -12 9 -10 -16 -14 4 1 2 -29 0
13 -12 9 -10 -16 -14 4 1 -2 -29 0
13 -12 9 -10 -16 -14 4 -1 2 -29 0
13 -12 9 -10 -16 -14 4 -1 -2 -29 0
13 -12 9 -10 -16 -14 -4 1 2 -29 0
13 -12 9 -10 -16 -14 -4 1 -2 -29 0
13 -12 9 -10 -16 -14 -4 -1 2 -29 0
13 -12 9 -10 -16 -14 -4 -1 -2 -29 0
13 -12 -9 10 16 14 4 1 2 -29 0
13 -12 -9 10 16 14 4 1 -2 29 0
13 -12 -9 10 16 14 4 -1 2 29 0
13 -12 -9 10 16 14 4 -1 -2 -29 0
13 -12 -9 10 16 14 -4 1 2 29 0
13 -12 -9 10 16 14 -4 1 -2 -29 0
13 -12 -9 10 16 14 -4 -1 2 -29 0
13 -12 -9 10 16 14 -4 -1 -2 -29 0
13 -12 -9 10 16 -14 4 1 2 29 0
13 -12 -9 10 16 -14 4 1 -2 -29 0
13 -12 -9 10 16 -14 4 -1 2 -29 0
13 -12 -9 10 16 -14 4 -1 -2 -29 0
13 -12 -9 10 16 -14 -4 1 2 -29 0
13 -12 -9 10 16 -14 -4 1 -2 -29 0
13 -12 -9 10 16 -14 -4 -1 2 -29 0
13 -12 -9 10 16 -14 -4 -1 -2 -29 0
13 -12 -9 10 -16 14 4 1 2 29 0
13 -12 -9 10 -16 14 4 1 -2 -29 0
13 -12 -9 10 -16 14 4 -1 2 -29 0
13 -12 -9 10 -16 14 4 -1 -2 -29 0
13 -12 -9 10 -16 14 -4 1 2 -29 0
13 -12 -9 10 -16 14 -4 1 -2 -29 0
13 -12 -9 10 -16 14 -4 -1 2 -29 0
13 -12 -9 10 -16 14 -4 -1 -2 -29 0
13 -12 -9 10 -16 -14 4 1 2 -29 0
13 -12 -9 10 -16 -14 4 1 -2 -29 0
13 -12 -9 10 -16 -14 4 -1 2 -29 0
13 -12 -9 10 -16 -14 4 -1 -2 -29 0
13 -12 -9 10 -16 -14 -4 1 2 -29 0
13 -12 -9 10 -16 -14 -4 1 -2 -29 0
13 -12 -9 10 -16 -14 -4 -1 2 -29 0
13 -12 -9 10 -16 -14 -4 -1 -2 -29 0
13 -12 -9 -10 16 14 4 1 2 29 0
13 -12 -9 -10 16 14 4 1 -2 -29 0
13 -12 -9 -10 16 14 4 -1 2 -29 0
13 -12 -9 -10 16 14 4 -1 -2 -29 0
13 -12 -9 -10 16 14 -4 1 2 -29 0
13 -12 -9 -10 16 14 -4 1 -2 -29 0
13 -12 -9 -10 16 14 -4 -1 2 -29 0
13 -12 -9 -10 16 14 -4 -1 -2 -29 0
13 -12 -9 -10 16 -14 4 1 2 -29 0
13 -12 -9 -10 16 -14 4 1 -2 -29 0
13 -12 -9 -10 16 -14 4 -1 2 -29 0
13 -12 -9 -10 16 -14 4 -1 -2 -29 0
13 -12 -9 -10 16 -14 -4 1 2 -29 0
13 -12 -9 -10 16 -14 -4 1 -2 -29 0
13 -12 -9 -10 16 -14 -4 -1 2 -29 0
13 -12 -9 -10 16 -14 -4 -1 -2 -29 0
13 -12 -9 -10 -16 14 4 1 2 -29 0
13 -12 -9 -10 -16 14 4 1 -2 -29 0
13 -12 -9 -10 -16 14 4 -1 2 -29 0
13 -12 -9 -10 -16 14 4 -1 -2 -29 0
13 -12 -9 -10 -16 14 -4 1 2 -29 0
13 -12 -9 -10 -16 14 -4 1 -2 -29 0
13 -12 -9 -10 -16 14 -4 -1 2 -29 0
13 -12 -9 -10 -16 14 -4 -1 -2 -29 0
13 -12 -9 -10 -16 -14 4 1 2 -29 0
13 -12 -9 -10 -16 -14 4 1 -2 -29 0
13 -12 -9 -10 -16 -14 4 -1 2 -29 0
13 -12 -9 -10 -16 -14 4 -1 -2 -29 0
13 -12 -9 -10 -16 -14 -4 1 2 -29 0
13 -12 -9 -10 -16 -14 -4 1 -2 -29 0
13 -12 -9 -10 -16 -14 -4 -1 2 -29 0
13 -12 -9 -10 -16 -14 -4 -1 -2 -29 0
-13 12 9 10 16 14 4 1 2 -29 0
-13 12 9 10 16 14 4 1 -2 -29 0
-13 12 9 10 16 14 4 -1 2 -29 0
-13 12 9 10 16 14 4 -1 -2 29 0
-13 12 9 10 16 14 -4 1 2 -29 0
-13 12 9 10 16 14 -4 1 -2 29 0
-13 12 9 10 16 14 -4 -1 2 29 0
-13 12 9 10 16 14 -4 -1 -2 29 0
-13 12 9 10 16 -14 4 1 2 -29 0
-13 12 9 10 16 -14 4 1 -2 29 0
-13 12 9 10 16 -14 4 -1 2 29 0
-13 12 9 10 16 -14 4 -1 -2 29 0
-13 12 9 10 16 -14 -4 1 2 29 0
-13 12 9 10 16 -14 -4 1 -2 29 0
-13 12 9 10 16 -14 -4 -1 2 29 0
-13 12 9 10 16 -14 -4 -1 -2 -29 0
-13 12 9 10 -16 14 4 1 2 -29 0
-13 12 9 10 -16 14 4 1 -2 29 0
-13 12 9 10 -16 14 4 -1 2 29 0
-13 12 9 10 -16 14 4 -1 -2 29 0
-13 12 9 10 -16 14 -4 1 2 29 0
-13 12 9 10 -16 14 -4 1 -2 29 0
-13 12 9 10 -16 14 -4 -1 2 29 0
-13 12 9 10 -16 14 -4 -1 -2 -29 0
-13 12 9 10 -16 -14 4 1 2 29 0
-13 12 9 10 -16 -14 4 1 -2 29 0
-13 12 9 10 -16 -14 4 -1 2 29 0
-13 12 9 10 -16 -14 4 -1 -2 -29 0
-13 12 9 10 -16 -14 -4 1 2 29 0
-13 12 9 10 -16 -14 -4 1 -2 -29 0
-13 12 9 10 -16 -14 -4 -1 2 -29 0
-13 12 9 10 -16 -14 -4 -1 -2 -29 0
-13 12 9 -10 16 14 4 1 2 -29 0
-13 12 9 -10 16 14 4 1 -2 29 0
-13 12 9 -10 16 14 4 -1 2 29 0
-13 12 9 -10 16 14 4 -1 -2 29 0
-13 12 9 -10 16 14 -4 1 2 29 0
-13 12 9 -10 16 14 -4 1 -2 29 0
-13 12 9 -10 16 14 -4 -1 2 29 0
-13 12 9 -10 16 14 -4 -1 -2 -29 0
-13 12 9 -10 16 -14 4 1 2 29 0
-13 12 9 -10 16 -14 4 1 -2 29 0
-13 12 9 -10 16 -14 4 -1 2 29 0
-13 12 9 -10 16 -14 4 -1 -2 -29 0
-13 12 9 -10 16 -14 -4 1 2 29 0
-13 12 9 -10 16 -14 -4 1 -2 -29 0
-13 12 9 -10 16 -14 -4 -1 2 -29 0
-13 12 9 -10 16 -14 -4 -1 -2 -29 0
-13 12 9 -10 -16 14 4 1 2 29 0
-13 12 9 -10 -16 14 4 1 -2 29 0
-13 12 9 -10 -16 14 4 -1 2 29 0
-13 12 9 -10 -16 14 4 -1 -2 -29 0
-13 12 9 -10 -16 14 -4 1 2 29 0
-13 12 9 -10 -16 14 -4 1 -2 -29 0
-13 12 9 -10 -16 14 -4 -1 2 -29 0
-13 12 9 -10 -16 14 -4 -1 -2 -29 0
-13 12 9 -10 -16 -14 4 1 2 29 0
-13 12 9 -10 -16 -14 4 1 -2 -29 0
-13 12 9 -10 -16 -14 4 -1 2 -29 0
-13 12 9 -10 -16 -14 4 -1 -2 -29 0
-13 12 9 -10 -16 -14 -4 1 2 -29 0
-13 12 9 -10 -16 -14 -4 1 -2 -29 0
-13 12 9 -10 -16 -14 -4 -1 2 -29 0
-13 12 9 -10 -16 -14 -4 -1 -2 -29 0
-13 12 -9 10 16 14 4 1 2 -29 0
-13 12 -9 10 16 14 4 1 -2 29 0
-13 12 -9 10 16 14 4 -1 2 29 0
-13 12 -9 10 16 14 4 -1 -2 29 0
-13 12 -9 10 16 14 -4 1 2 29 0
-13 12 -9 10 16 14 -4 1 -2 29 0
-13 12 -9 10 16 14 -4 -1 2 29 0
-13 12 -9 10 16 14 -4 -1 -2 -29 0
-13 12 -9 10 16 -14 4 1 2 29 0
-13 12 -9 10 16 -14 4 1 -2 29 0
-13 12 -9 10 16 -14 4 -1 2 29 0
-13 12 -9 10 16 -14 4 -1 -2 -29 0
-13 12 -9 10 16 -14 -4 1 2 29 0
-13 12 -9 10 16 -14 -4 1 -2 -29 0
-13 12 -9 10 16 -14 -4 -1 2 -29 0
-13 12 -9 10 16 -14 -4 -1 -2 -29 0
-13 12 -9 10 -16 14 4 1 2 29 0
-13 12 -9 10 -16 14 4 1 -2 29 0
-13 12 -9 10 -16 14 4 -1 2 29 0
-13 12 -9 10 -16 14 4 -1 -2 -29 0
-13 12 -9 10 -16 14 -4 1 2 29 0
-13 12 -9 10 -16 14 -4 1 -2 -29 0
-13 12 -9 10 -16 14 -4 -1 2 -29 0
-13 12 -9 10 -16 14 -4 -1 -2 -29 0
-13 12 -9 10 -16 -14 4 1 2 29 0
-13 12 -9 10 -16 -14 4 1 -2 -29 0
-13 12 -9 10 -16 -14 4 -1 2 -29 0
-13 12 -9 10 -16 -14 4 -1 -2 -29 0
-13 12 -9 10 -16 -14 -4 1 2 -29 0
-13 12 -9 10 -16 -14 -4 1 -2 -29 0
-13 12 -9 10 -16 -14 -4 -1 2 -29 0
-13 12 -9 10 -16 -14 -4 -1 -2 -29 0
-13 12 -9 -10 16 14 4 1 2 29 0
-13 12 -9 -10 16 14 4 1 -2 29 0
-13 12 -9 -10 16 14 4 -1 2 29 0
-13 12 -9 -10 16 14 4 -1 -2 -29 0
-13 12 -9 -10 16 14 -4 1 2 29 0
-13 12 -9 -10 16 14 -4 1 -2 -29 0
-13 12 -9 -10 16 14 -4 -1 2 -29 0
-13 12 -9 -10 16 14 -4 -1 -2 -29 0
-13 12 -9 -10 16 -14 4 1 2 29 0
-13 12 -9 -10 16 -14 4 1 -2 -29 0
-13 12 -9 -10 16 -14 4 -1 2 -29 0
-13 12 -9 -10 16 -14 4 -1 -2 -29 0
-13 12 -9 -10 16 -14 -4 1 2 -29 0
-13 12 -9 -10 16 -14 -4 1 -2 -29 0
-13 12 -9 -10 16 -14 -4 -1 2 -29 0
-13 12 -9 -10 16 -14 -4 -1 -2 -29 0
-13 12 -9 -10 -16 14 4 1 2 29 0
-13 12 -9 -10 -16 14 4 1 -2 -29 0
-13 12 -9 -10 -16 14 4 -1 2 -29 0
-13 12 -9 -10 -16 14 4 -1 -2 -29 0
-13 12 -9 -10 -16 14 -4 1 2 -29 0
-13 12 -9 -10 -16 14 -4 1 -2 -29 0
-13 12 -9 -10 -16 14 -4 -1 2 -29 0
-13 12 -9 -10 -16 14 -4 -1 -2 -29 0
-13 12 -9 -10 -16 -14 4 1 2 -29 0
-13 12 -9 -10 -16 -14 4 1 -2 -29 0
-13 12 -9 -10 -16 -14 4 -1 2 -29 0
-13 12 -9 -10 -16 -14 4 -1 -2 -29 0
-13 12 -9 -10 -16 -14 -4 1 2 -29 0
-13 12 -9 -10 -16 -14 -4 1 -2 -29 0
-13 12 -9 -10 -16 -14 -4 -1 2 -29 0
-13 12 -9 -10 -16 -14 -4 -1 -2 -29 0
-13 -12 9 10 16 14 4 1 2 -29 0
-13 -12 9 10 16 14 4 1 -2 29 0
-13 -12 9 10 16 14 4 -1 2 29 0
-13 -12 9 10 16 14 4 -1 -2 29 0
-13 -12 9 10 16 14 -4 1 2 29 0
-13 -12 9 10 16 14 -4 1 -2 29 0
-13 -12 9 10 16 14 -4 -1 2 29 0
-13 -12 9 10 16 14 -4 -1 -2 -29 0
-13 -12 9 10 16 -14 4 1 2 29 0
-13 -12 9 10 16 -14 4 1 -2 29 0
-13 -12 9 10 16 -14 4 -1 2 29 0
-13 -12 9 10 16 -14 4 -1 -2 -29 0
-13 -12 9 10 16 -14 -4 1 2 29 0
-13 -12 9 10 16 -14 -4 1 -2 -29 0
-13 -12 9 10 16 -14 -4 -1 2 -29 0
-13 -12 9 10 16 -14 -4 -1 -2 -29 0
-13 -12 9 10 -16 14 4 1 2 29 0
-13 -12 9 10 -16 14 4 1 -2 29 0
-13 -12 9 10 -16 14 4 -1 2 29 0
-13 -12 9 10 -16 14 4 -1 -2 -29 0
-13 -12 9 10 -16 14 -4 1 2 29 0
-13 -12 9 10 -16 14 -4 1 -2 -29 0
-13 -12 9 10 -16 14 -4 -1 2 -29 0
-13 -12 9 10 -16 14 -4 -1 -2 -29 0
-13 -12 9 10 -16 -14 4 1 2 29 0
-13 -12 9 10 -16 -14 4 1 -2 -29 0
-13 -12 9 10 -16 -14 4 -1 2 -29 0
-13 -12 9 10 -16 -14 4 -1 -2 -29 0
-13 -12 9 10 -16 -14 -4 1 2 -29 0
-13 -12 9 10 -16 -14 -4 1 -2 -29 0
-13 -12 9 10 -16 -14 -4 -1 2 -29 0
-13 -12 9 10 -16 -14 -4 -1 -2 -29 0
-13 -12 9 -10 16 14 4 1 2 29 0
-13 -12 9 -10 16 14 4 1 -2 29 0
-13 -12 9 -10 16 14 4 -1 2 29 0
-13 -12 9 -10 16 14 4 -1 -2 -29 0
-13 -12 9 -10 16 14 -4 1 2 29 0
-13 -12 9 -10 16 14 -4 1 -2 -29 0
-13 -12 9 -10 16 14 -4 -1 2 -29 0
-13 -12 9 -10 16 14 -4 -1 -2 -29 0
-13 -12 9 -10 16 -14 4 1 2 29 0
-13 -12 9 -10 16 -14 4 1 -2 -29 0
-13 -12 9 -10 16 -14 4 -1 2 -29 0
-13 -12 9 -10 16 -14 4 -1 -2 -29 0
-13 -12 9 -10 16 -14 -4 1 2 -29 0
-13 -12 9 -10 16 -14 -4 1 -2 -29 0
-13 -12 9 -10 16 -14 -4 -1 2 -29 0
-13 -12 9 -10 16 -14 -4 -1 -2 -29 0
-13 -12 9 -10 -16 14 4 1 2 29 0
-13 -12 9 -10 -16 14 4 1 -2 -29 0
-13 -12 9 -10 -16 14 4 -1 2 -29 0
-13 -12 9 -10 -16 14 4 -1 -2 -29 0
-13 -12 9 -10 -16 14 -4 1 2 -29 0
-13 -12 9 -10 -16 14 -4 1 -2 -29 0
-13 -12 9 -10 -16 14 -4 -1 2 -29 0
-13 -12 9 -10 -16 14 -4 -1 -2 -29 0
-13 -12 9 -10 -16 -14 4 1 2 -29 0
-13 -12 9 -10 -16 -14 4 1 -2 -29 0
-13 -12 9 -10 -16 -14 4 -1 2 -29 0
-13 -12 9 -10 -16 -14 4 -1 -2 -29 0
-13 -12 9 -10 -16 -14 -4 1 2 -29 0
-13 -12 9 -10 -16 -14 -4 1 -2 -29 0
-13 -12 9 -10 -16 -14 -4 -1 2 -29 0
-13 -12 9 -10 -16 -14 -4 -1 -2 -29 0
-13 -12 -9 10 16 14 4 1 2 29 0
-13 -12 -9 10 16 14 4 1 -2 29 0
-13 -12 -9 10 16 14 4 -1 2 29 0
-13 -12 -9 10 16 14 4 -1 -2 -29 0
-13 -12 -9 10 16 14 -4 1 2 29 0
-13 -12 -9 10 16 14 -4 1 -2 -29 0
-13 -12 -9 10 16 14 -4 -1 2 -29 0
-13 -12 -9 10 16 14 -4 -1 -2 -29 0
-13 -12 -9 10 16 -14 4 1 2 29 0
-13 -12 -9 10 16 -14 4 1 -2 -29 0
-13 -12 -9 10 16 -14 4 -1 2 -29 0
-13 -12 -9 10 16 -14 4 -1 -2 -29 0
-13 -12 -9 10 16 -14 -4 1 2 -29 0
-13 -12 -9 10 16 -14 -4 1 -2 -29 0
-13 -12 -9 10 16 -14 -4 -1 2 -29 0
-13 -12 -9 10 16 -14 -4 -1 -2 -29 0
-13 -12 -9 10 -16 14 4 1 2 29 0
-13 -12 -9 10 -16 14 4 1 -2 -29 0
-13 -12 -9 10 -16 14 4 -1 2 -29 0
-13 -12 -9 10 -16 14 4 -1 -2 -29 0
-13 -12 -9 10 -16 14 -4 1 2 -29 0
-13 -12 -9 10 -16 14 -4 1 -2 -29 0
-13 -12 -9 10 -16 14 -4 -1 2 -29 0
-13 -12 -9 10 -16 14 -4 -1 -2 -29 0
-13 -12 -9 10 -16 -14 4 1 2 -29 0
-13 -12 -9 10 -16 -14 4 1 -2 -29 0
-13 -12 -9 10 -16 -14 4 -1 2 -29 0
-13 -12 -9 10 -16 -14 4 -1 -2 -29 0
-13 -12 -9 10 -16 -14 -4 1 2 -29 0
-13 -12 -9 10 -16 -14 -4 1 -2 -29 0
-13 -12 -9 10 -16 -14 -4 -1 2 -29 0
-13 -12 -9 10 -16 -14 -4 -1 -2 -29 0
-13 -12 -9 -10 16 14 4 1 2 29 0
-13 -12 -9 -10 16 14 4 1 -2 -29 0
-13 -12 -9 -10 16 14 4 -1 2 -29 0
-13 -12 -9 -10 16 14 4 -1 -2 -29 0
-13 -12 -9 -10 16 14 -4 1 2 -29 0
-13 -12 -9 -10 16 14 -4 1 -2 -29 0
-13 -12 -9 -10 16 14 -4 -1 2 -29 0
-13 -12 -9 -10 16 14 -4 -1 -2 -29 0
-13 -12 -9 -10 16 -14 4 1 2 -29 0
-13 -12 -9 -10 16 -14 4 1 -2 -29 0
-13 -12 -9 -10 16 -14 4 -1 2 -29 0
-13 -12 -9 -10 16 -14 4 -1 -2 -29 0
-13 -12 -9 -10 16 -14 -4 1 2 -29 0
-13 -12 -9 -10 16 -14 -4 1 -2 -29 0
-13 -12 -9 -10 16 -14 -4 -1 2 -29 0
-13 -12 -9 -10 16 -14 -4 -1 -2 -29 0
-13 -12 -9 -10 -16 14 4 1 2 -29 0
-13 -12 -9 -10 -16 14 4 1 -2 -29 0
-13 -12 -9 -10 -16 14 4 -1 2 -29 0
-13 -12 -9 -10 -16 14 4 -1 -2 -29 0
-13 -12 -9 -10 -16 14 -4 1 2 -29 0
-13 -12 -9 -10 -16 14 -4 1 -2 -29 0
-13 -12 -9 -10 -16 14 -4 -1 2 -29 0
-13 -12 -9 -10 -16 14 -4 -1 -2 -29 0
-13 -12 -9 -10 -16 -14 4 1 2 -29 0
-13 -12 -9 -10 -16 -14 4 1 -2 -29 0
-13 -12 -9 -10 -16 -14 4 -1 2 -29 0
-13 -12 -9 -10 -16 -14 4 -1 -2 -29 0
-13 -12 -9 -10 -16 -14 -4 1 2 -29 0
-13 -12 -9 -10 -16 -14 -4 1 -2 -29 0
-13 -12 -9 -10 -16 -14 -4 -1 2 -29 0
-13 -12 -9 -10 -16 -14 -4 -1 -2 -29 0
14 9 10 11 13 15 1 2 3 -30 0
14 9 10 11 13 15 1 2 -3 -30 0
14 9 10 11 13 15 1 -2 3 -30 0
14 9 10 11 13 15 1 -2 -3 -30 0
14 9 10 11 13 15 -1 2 3 -30 0
14 9 10 11 13 15 -1 2 -3 -30 0
14 9 10 11 13 15 -1 -2 3 -30 0
14 9 10 11 13 15 -1 -2 -3 30 0
14 9 10 11 13 -15 1 2 3 -30 0
14 9 10 11 13 -15 1 2 -3 -30 0
14 9 10 11 13 -15 1 -2 3 -30 0
14 9 10 11 13 -15 1 -2 -3 30 0
14 9 10 11 13 -15 -1 2 3 -30 0
14 9 10 11 13 -15 -1 2 -3 30 0
14 9 10 11 13 -15 -1 -2 3 30 0
14 9 10 11 13 -15 -1 -2 -3 -30 0
14 9 10 11 -13 15 1 2 3 -30 0
14 9 10 11 -13 15 1 2 -3 -30 0
14 9 10 11 -13 15 1 -2 3 -30 0
14 9 10 11 -13 15 1 -2 -3 30 0
14 9 10 11 -13 15 -1 2 3 -30 0
14 9 10 11 -13 15 -1 2 -3 30 0
14 9 10 11 -13 15 -1 -2 3 30 0
14 9 10 11 -13 15 -1 -2 -3 -30 0
14 9 10 11 -13 -15 1 2 3 -30 0
14 9 10 11 -13 -15 1 2 -3 30 0
14 9 10 11 -13 -15 1 -2 3 30 0
14 9 10 11 -13 -15 1 -2 -3 -30 0
14 9 10 11 -13 -15 -1 2 3 30 0
14 9 10 11 -13 -15 -1 2 -3 -30 0
14 9 10 11 -13 -15 -1 -2 3 -30 0
14 9 10 11 -13 -15 -1 -2 -3 -30 0
14 9 10 -11 13 15 1 2 3 -30 0
14 9 10 -11 13 15 1 2 -3 -30 0
14 9 10 -11 13 15 1 -2 3 -30 0
14 9 10 -11 13 15 1 -2 -3 30 0
14 9 10 -11 13 15 -1 2 3 -30 0
14 9 10 -11 13 15 -1 2 -3 30 0
14 9 10 -11 13 15 -1 -2 3 30 0
14 9 10 -11 13 15 -1 -2 -3 -30 0
14 9 10 -11 13 -15 1 2 3 -30 0
14 9 10 -11 13 -15 1 2 -3 30 0
14 9 10 -11 13 -15 1 -2 3 30 0
14 9 10 -11 13 -15 1 -2 -3 -30 0
14 9 10 -11 13 -15 -1 2 3 30 0
14 9 10 -11 13 -15 -1 2 -3 -30 0
14 9 10 -11 13 -15 -1 -2 3 -30 0
14 9 10 -11 13 -15 -1 -2 -3 -30 0
14 9 10 -11 -13 15 1 2 3 -30 0
14 9 10 -11 -13 15 1 2 -3 30 0
14 9 10 -11 -13 15 1 -2 3 30 0
14 9 10 -11 -13 15 1 -2 -3 -30 0
14 9 10 -11 -13 15 -1 2 3 30 0
14 9 10 -11 -13 15 -1 2 -3 -30 0
14 9 10 -11 -13 15 -1 -2 3 -30 0
14 9 10 -11 -13 15 -1 -2 -3 -30 0
14 9 10 -11 -13 -15 1 2 3 30 0
14 9 10 -11 -13 -15 1 2 -3 -30 0
14 9 10 -11 -13 -15 1 -2 3 -30 0
14 9 10 -11 -13 -15 1 -2 -3 -30 0
14 9 10 -11 -13 -15 -1 2 3 -30 0
14 9 10 -11 -13 -15 -1 2 -3 -30 0
14 9 10 -11 -13 -15 -1 -2 3 -30 0
14 9 10 -11 -13 -15 -1 -2 -3 -30 0
14 9 -10 11 13 15 1 2 3 -30 0
14 9 -10 11 13 15 1 2 -3 -30 0
14 9 -10 11 13 15 1 -2 3 -30 0
14 9 -10 11 13 15 1 -2 -3 30 0
14 9 -10 11 13 15 -1 2 3 -30 0
14 9 -10 11 13 15 -1 2 -3 30 0
14 9 -10 11 13 15 -1 -2 3 30 0
14 9 -10 11 13 15 -1 -2 -3 -30 0
14 9 -10 11 13 -15 1 2 3 -30 0
14 9 -10 11 13 -15 1 2 -3 30 0
14 9 -10 11 13 -15 1 -2 3 30 0
14 9 -10 11 13 -15 1 -2 -3 -30 0
14 9 -10 11 13 -15 -1 2 3 30 0
14 9 -10 11 13 -15 -1 2 -3 -30 0
14 9 -10 11 13 -15 -1 -2 3 -30 0
14 9 -10 11 13 -15 -1 -2 -3 -30 0
14 9 -10 11 -13 15 1 2 3 -30 0
14 9 -10 11 -13 15 1 2 -3 30 0
14 9 -10 11 -13 15 1 -2 3 30 0
14 9 -10 11 -13 15 1 -2 -3 -30 0
14 9 -10 11 -13 15 -1 2 3 30 0
14 9 -10 11 -13 15 -1 2 -3 -30 0
14 9 -10 11 -13 15 -1 -2 3 -30 0
14 9 -10 11 -13 15 -1 -2 -3 -30 0
14 9 -10 11 -13 -15 1 2 3 30 0
14 9 -10 11 -13 -15 1 2 -3 -30 0
14 9 -10 11 -13 -15 1 -2 3 -30 0
14 9 -10 11 -13 -15 1 -2 -3 -30 0
14 9 -10 11 -13 -15 -1 2 3 -30 0
14 9 -10 11 -13 -15 -1 2 -3 -30 0
14 9 -10 11 -13 -15 -1 -2 3 -30 0
14 9 -10 11 -13 -15 -1 -2 -3 -30 0
14 9 -10 -11 13 15 1 2 3 -30 0
14 9 -10 -11 13 15 1 2 -3 30 0
14 9 -10 -11 13 15 1 -2 3 30 0
14 9 -10 -11 13 15 1 -2 -3 -30 0
14 9 -10 -11 13 15 -1 2 3 30 0
14 9 -10 -11 13 15 -1 2 -3 -30 0
14 9 -10 -11 13 15 -1 -2 3 -30 0
14 9 -10 -11 13 15 -1 -2 -3 -30 0
14 9 -10 -11 13 -15 1 2 3 30 0
14 9 -10 -11 13 -15 1 2 -3 -30 0
14 9 -10 -11 13 -15 1 -2 3 -30 0
14 9 -10 -11 13 -15 1 -2 -3 -30 0
14 9 -10 -11 13 -15 -1 2 3 -30 0
14 9 -10 -11 13 -15 -1 2 -3 -30 0
14 9 -10 -11 13 -15 -1 -2 3 -30 0
14 9 -10 -11 13 -15 -1 -2 -3 -30 0
14 9 -10 -11 -13 15 1 2 3 30 0
14 9 -10 -11 -13 15 1 2 -3 -30 0
14 9 -10 -11 -13 15 1 -2 3 -30 0
14 9 -10 -11 -13 15 1 -2 -3 -30 0
14 9 -10 -11 -13 15 -1 2 3 -30 0
14 9 -10 -11 -13 15 -1 2 -3 -30 0
14 9 -10 -11 -13 15 -1 -2 3 -30 0
14 9 -10 -11 -13 15 -1 -2 -3 -30 0
14 9 -10 -11 -13 -15 1 2 3 -30 0
14 9 -10 -11 -13 -15 1 2 -3 -30 0
14 9 -10 -11 -13 -15 1 -2 3 -30 0
14 9 -10 -11 -13 -15 1 -2 -3 -30 0
14 9 -10 -11 -13 -15 -1 2 3 -30 0
14 9 -10 -11 -13 -15 -1 2 -3 -30 0
14 9 -10 -11 -13 -15 -1 -2 3 -30 0
14 9 -10 -11 -13 -15 -1 -2 -3 -30 0
14 -9 10 11 13 15 1 2 3 -30 0
14 -9 10 11 13 15 1 2 -3 -30 0
14 -9 10 11 13 15 1 -2 3 -30 0
14 -9 10 11 13 15 1 -2 -3 30 0
14 -9 10 11 13 15 -1 2 3 -30 0
14 -9 10 11 13 15 -1 2 -3 30 0
14 -9 10 11 13 15 -1 -2 3 30 0
14 -9 10 11 13 15 -1 -2 -3 -30 0
14 -9 10 11 13 -15 1 2 3 -30 0
14 -9 10 11 13 -15 1 2 -3 30 0
14 -9 10 11 13 -15 1 -2 3 30 0
14 -9 10 11 13 -15 1 -2 -3 -30 0
14 -9 10 11 13 -15 -1 2 3 30 0
14 -9 10 11 13 -15 -1 2 -3 -30 0
14 -9 10 11 13 -15 -1 -2 3 -30 0
14 -9 10 11 13 -15 -1 -2 -3 -30 0
14 -9 10 11 -13 15 1 2 3 -30 0
14 -9 10 11 -13 15 1 2 -3 30 0
14 -9 10 11 -13 15 1 -2 3 30 0
14 -9 10 11 -13 15 1 -2 -3 -30 0
14 -9 10 11 -13 15 -1 2 3 30 0
14 -9 10 11 -13 15 -1 2 -3 -30 0
14 -9 10 11 -13 15 -1 -2 3 -30 0
14 -9 10 11 -13 15 -1 -2 -3 -30 0
14 -9 10 11 -13 -15 1 2 3 30 0
14 -9 10 11 -13 -15 1 2 -3 -30 0
14 -9 10 11 -13 -15 1 -2 3 -30 0
14 -9 10 11 -13 -15 1 -2 -3 -30 0
14 -9 10 11 -13 -15 -1 2 3 -30 0
14 -9 10 11 -13 -15 -1 2 -3 -30 0
14 -9 10 11 -13 -15 -1 -2 3 -30 0
14 -9 10 11 -13 -15 -1 -2 -3 -30 0
14 -9 10 -11 13 15 1 2 3 -30 0
14 -9 10 -11 13 15 1 2 -3 30 0
14 -9 10 -11 13 15 1 -2 3 30 0
14 -9 10 -11 13 15 1 -2 -3 -30 0
14 -9 10 -11 13 15 -1 2 3 30 0
14 -9 10 -11 13 15 -1 2 -3 -30 0
14 -9 10 -11 13 15 -1 -2 3 -30 0
14 -9 10 -11 13 15 -1 -2 -3 -30 0
14 -9 10 -11 13 -15 1 2 3 30 0
14 -9 10 -11 13 -15 1 2 -3 -30 0
14 -9 10 -11 13 -15 1 -2 3 -30 0
14 -9 10 -11 13 -15 1 -2 -3 -30 0
14 -9 10 -11 13 -15 -1 2 3 -30 0
14 -9 10 -11 13 -15 -1 2 -3 -30 0
14 -9 10 -11 13 -15 -1 -2 3 -30 0
14 -9 10 -11 13 -15 -1 -2 -3 -30 0
14 -9 10 -11 -13 15 1 2 3 30 0
14 -9 10 -11 -13 15 1 2 -3 -30 0
14 -9 10 -11 -13 15 1 -2 3 -30 0
14 -9 10 -11 -13 15 1 -2 -3 -30 0
14 -9 10 -11 -13 15 -1 2 3 -30 0
14 -9 10 -11 -13 15 -1 2 -3 -30 0
14 -9 10 -11 -13 15 -1 -2 3 -30 0
14 -9 10 -11 -13 15 -1 -2 -3 -30 0
14 -9 10 -11 -13 -15 1 2 3 -30 0
14 -9 10 -11 -13 -15 1 2 -3 -30 0
14 -9 10 -11 -13 -15 1 -2 3 -30 0
14 -9 10 -11 -13 -15 1 -2 -3 -30 0
14 -9 10 -11 -13 -15 -1 2 3 -30 0
14 -9 10 -11 -13 -15 -1 2 -3 -30 0
14 -9 10 -11 -13 -15 -1 -2 3 -30 0
14 -9 10 -11 -13 -15 -1 -2 -3 -30 0
14 -9 -10 11 13 15 1 2 3 -30 0
14 -9 -10 11 13 15 1 2 -3 30 0
14 -9 -10 11 13 15 1 -2 3 30 0
14 -9 -10 11 13 15 1 -2 -3 -30 0
14 -9 -10 11 13 15 -1 2 3 30 0
14 -9 -10 11 13 15 -1 2 -3 -30 0
14 -9 -10 11 13 15 -1 -2 3 -30 0
14 -9 -10 11 13 15 -1 -2 -3 -30 0
14 -9 -10 11 13 -15 1 2 3 30 0
14 -9 -10 11 13 -15 1 2 -3 -30 0
14 -9 -10 11 13 -15 1 -2 3 -30 0
14 -9 -10 11 13 -15 1 -2 -3 -30 0
14 -9 -10 11 13 -15 -1 2 3 -30 0
14 -9 -10 11 13 -15 -1 2 -3 -30 0
14 -9 -10 11 13 -15 -1 -2 3 -30 0
14 -9 -10 11 13 -15 -1 -2 -3 -30 0
14 -9 -10 11 -13 15 1 2 3 30 0
14 -9 -10 11 -13 15 1 2 -3 -30 0
14 -9 -10 11 -13 15 1 -2 3 -30 0
14 -9 -10 11 -13 15 1 -2 -3 -30 0
14 -9 -10 11 -13 15 -1 2 3 -30 0
14 -9 -10 11 -13 15 -1 2 -3 -30 0
14 -9 -10 11 -13 15 -1 -2 3 -30 0
14 -9 -10 11 -13 15 -1 -2 -3 -30 0
14 -9 -10 11 -13 -15 1 2 3 -30 0
14 -9 -10 11 -13 -15 1 2 -3 -30 0
14 -9 -10 11 -13 -15 1 -2 3 -30 0
14 -9 -10 11 -13 -15 1 -2 -3 -30 0
14 -9 -10 11 -13 -15 -1 2 3 -30 0
14 -9 -10 11 -13 -15 -1 2 -3 -30 0
14 -9 -10 11 -13 -15 -1 -2 3 -30 0
14 -9 -10 11 -13 -15 -1 -2 -3 -30 0
14 -9 -10 -11 13 15 1 2 3 30 0
14 -9 -10 -11 13 15 1 2 -3 -30 0
14 -9 -10 -11 13 15 1 -2 3 -30 0
14 -9 -10 -11 13 15 1 -2 -3 -30 0
14 -9 -10 -11 13 15 -1 2 3 -30 0
14 -9 -10 -11 13 15 -1 2 -3 -30 0
14 -9 -10 -11 13 15 -1 -2 3 -30 0
14 -9 -10 -11 13 15 -1 -2 -3 -30 0
14 -9 -10 -11 13 -15 1 2 3 -30 0
14 -9 -10 -11 13 -15 1 2 -3 -30 0
14 -9 -10 -11 13 -15 1 -2 3 -30 0
14 -9 -10 -11 13 -15 1 -2 -3 -30 0
14 -9 -10 -11 13 -15 -1 2 3 -30 0
14 -9 -10 -11 13 -15 -1 2 -3 -30 0
14 -9 -10 -11 13 -15 -1 -2 3 -30 0
14 -9 -10 -11 13 -15 -1 -2 -3 -30 0
14 -9 -10 -11 -13 15 1 2 3 -30 0
14 -9 -10 -11 -13 15 1 2 -3 -30 0
14 -9 -10 -11 -13 15 1 -2 3 -30 0
14 -9 -10 -11 -13 15 1 -2 -3 -30 0
14 -9 -10 -11 -13 15 -1 2 3 -30 0
14 -9 -10 -11 -13 15 -1 2 -3 -30 0
14 -9 -10 -11 -13 15 -1 -2 3 -30 0
14 -9 -10 -11 -13 15 -1 -2 -3 -30 0
14 -9 -10 -11 -13 -15 1 2 3 -30 0
14 -9 -10 -11 -13 -15 1 2 -3 -30 0
14 -9 -10 -11 -13 -15 1 -2 3 -30 0
14 -9 -10 -11 -13 -15 1 -2 -3 -30 0
14 -9 -10 -11 -13 -15 -1 2 3 -30 0
14 -9 -10 -11 -13 -15 -1 2 -3 -30 0
14 -9 -10 -11 -13 -15 -1 -2 3 -30 0
14 -9 -10 -11 -13 -15 -1 -2 -3 -30 0
-14 9 10 11 13 15 1 2 3 -30 0
-14 9 10 11 13 15 1 2 -3 -30 0
-14 9 10 11 13 15 1 -2 3 -30 0
-14 9 10 11 13 15 1 -2 -3 30 0
-14 9 10 11 13 15 -1 2 3 -30 0
-14 9 10 11 13 15 -1 2 -3 30 0
-14 9 10 11 13 15 -1 -2 3 30 0
-14 9 10 11 13 15 -1 -2 -3 30 0
-14 9 10 11 13 -15 1 2 3 -30 0
-14 9 10 11 13 -15 1 2 -3 30 0
-14 9 10 11 13 -15 1 -2 3 30 0
-14 9 10 11 13 -15 1 -2 -3 30 0
-14 9 10 11 13 -15 -1 2 3 30 0
-14 9 10 11 13 -15 -1 2 -3 30 0
-14 9 10 11 13 -15 -1 -2 3 30 0
-14 9 10 11 13 -15 -1 -2 -3 -30 0
-14 9 10 11 -13 15 1 2 3 -30 0
-14 9 10 11 -13 15 1 2 -3 30 0
-14 9 10 11 -13 15 1 -2 3 30 0
-14 9 10 11 -13 15 1 -2 -3 30 0
-14 9 10 11 -13 15 -1 2 3 30 0
-14 9 10 11 -13 15 -1 2 -3 30 0
-14 9 10 11 -13 15 -1 -2 3 30 0
-14 9 10 11 -13 15 -1 -2 -3 -30 0
-14 9 10 11 -13 -15 1 2 3 30 0
-14 9 10 11 -13 -15 1 2 -3 30 0
-14 9 10 11 -13 -15 1 -2 3 30 0
-14 9 10 11 -13 -15 1 -2 -3 -30 0
-14 9 10 11 -13 -15 -1 2 3 30 0
-14 9 10 11 -13 -15 -1 2 -3 -30 0
-14 9 10 11 -13 -15 -1 -2 3 -30 0
-14 9 10 11 -13 -15 -1 -2 -3 -30 0
-14 9 10 -11 13 15 1 2 3 -30 0
-14 9 10 -11 13 15 1 2 -3 30 0
-14 9 10 -11 13 15 1 -2 3 30 0
-14 9 10 -11 13 15 1 -2 -3 30 0
-14 9 10 -11 13 15 -1 2 3 30 0
-14 9 10 -11 13 15 -1 2 -3 30 0
-14 9 10 -11 13 15 -1 -2 3 30 0
-14 9 10 -11 13 15 -1 -2 -3 -30 0
-14 9 10 -11 13 -15 1 2 3 30 0
-14 9 10 -11 13 -15 1 2 -3 30 0
-14 9 10 -11 13 -15 1 -2 3 30 0
-14 9 10 -11 13 -15 1 -2 -3 -30 0
-14 9 10 -11 13 -15 -1 2 3 30 0
-14 9 10 -11 13 -15 -1 2 -3 -30 0
-14 9 10 -11 13 -15 -1 -2 3 -30 0
-14 9 10 -11 13 -15 -1 -2 -3 -30 0
-14 9 10 -11 -13 15 1 2 3 30 0
-14 9 10 -11 -13 15 1 2 -3 30 0
-14 9 10 -11 -13 15 1 -2 3 30 0
-14 9 10 -11 -13 15 1 -2 -3 -30 0
-14 9 10 -11 -13 15 -1 2 3 30 0
-14 9 10 -11 -13 15 -1 2 -3 -30 0
-14 9 10 -11 -13 15 -1 -2 3 -30 0
-14 9 10 -11 -13 15 -1 -2 -3 -30 0
-14 9 10 -11 -13 -15 1 2 3 30 0
-14 9 10 -11 -13 -15 1 2 -3 -30 0
-14 9 10 -11 -13 -15 1 -2 3 -30 0
-14 9 10 -11 -13 -15 1 -2 -3 -30 0
-14 9 10 -11 -13 -15 -1 2 3 -30 0
-14 9 10 -11 -13 -15 -1 2 -3 -30 0
-14 9 10 -11 -13 -15 -1 -2 3 -30 0
-14 9 10 -11 -13 -15 -1 -2 -3 -30 0
-14 9 -10 11 13 15 1 2 3 -30 0
-14 9 -10 11 13 15 1 2 -3 30 0
-14 9 -10 11 13 15 1 -2 3 30 0
-14 9 -10 11 13 15 1 -2 -3 30 0
-14 9 -10 11 13 15 -1 2 3 30 0
-14 9 -10 11 13 15 -1 2 -3 30 0
-14 9 -10 11 13 15 -1 -2 3 30 0
-14 9 -10 11 13 15 -1 -2 -3 -30 0
-14 9 -10 11 13 -15 1 2 3 30 0
-14 9 -10 11 13 -15 1 2 -3 30 0
-14 9 -10 11 13 -15 1 -2 3 30 0
-14 9 -10 11 13 -15 1 -2 -3 -30 0
-14 9 -10 11 13 -15 -1 2 3 30 0
-14 9 -10 11 13 -15 -1 2 -3 -30 0
-14 9 -10 11 13 -15 -1 -2 3 -30 0
-14 9 -10 11 13 -15 -1 -2 -3 -30 0
-14 9 -10 11 -13 15 1 2 3 30 0
-14 9 -10 11 -13 15 1 2 -3 30 0
-14 9 -10 11 -13 15 1 -2 3 30 0
-14 9 -10 11 -13 15 1 -2 -3 -30 0
-14 9 -10 11 -13 15 -1 2 3 30 0
-14 9 -10 11 -13 15 -1 2 -3 -30 0
-14 9 -10 11 -13 15 -1 -2 3 -30 0
-14 9 -10 11 -13 15 -1 -2 -3 -30 0
-14 9 -10 11 -13 -15 1 2 3 30 0
-14 9 -10 11 -13 -15 1 2 -3 -30 0
-14 9 -10 11 -13 -15 1 -2 3 -30 0
-14 9 -10 11 -13 -15 1 -2 -3 -30 0
-14 9 -10 11 -13 -15 -1 2 3 -30 0
-14 9 -10 11 -13 -15 -1 2 -3 -30 0
-14 9 -10 11 -13 -15 -1 -2 3 -30 0
-14 9 -10 11 -13 -15 -1 -2 -3 -30 0
-14 9 -10 -11 13 15 1 2 3 30 0
-14 9 -10 -11 13 15 1 2 -3 30 0
-14 9 -10 -11 13 15 1 -2 3 30 0
-14 9 -10 -11 13 15 1 -2 -3 -30 0
-14 9 -10 -11 13 15 -1 2 3 30 0
-14 9 -10 -11 13 15 -1 2 -3 -30 0
-14 9 -10 -11 13 15 -1 -2 3 -30 0
-14 9 -10 -11 13 15 -1 -2 -3 -30 0
-14 9 -10 -11 13 -15 1 2 3 30 0
-14 9 -10 -11 13 -15 1 2 -3 -30 0
-14 9 -10 -11 13 -15 1 -2 3 -30 0
-14 9 -10 -11 13 -15 1 -2 -3 -30 0
-14 9 -10 -11 13 -15 -1 2 3 -30 0
-14 9 -10 -11 13 -15 -1 2 -3 -30 0
-14 9 -10 -11 13 -15 -1 -2 3 -30 0
-14 9 -10 -11 13 -15 -1 -2 -3 -30 0
-14 9 -10 -11 -13 15 1 2 3 30 0
-14 9 -10 -11 -13 15 1 2 -3 -30 0
-14 9 -10 -11 -13 15 1 -2 3 -30 0
-14 9 -10 -11 -13 15 1 -2 -3 -30 0
-14 9 -10 -11 -13 15 -1 2 3 -30 0
-14 9 -10 -11 -13 15 -1 2 -3 -30 0
-14 9 -10 -11 -13 15 -1 -2 3 -30 0
-14 9 -10 -11 -13 15 -1 -2 -3 -30 0
-14 9 -10 -11 -13 -15 1 2 3 -30 0
-14 9 -10 -11 -13 -15 1 2 -3 -30 0
-14 9 -10 -11 -13 -15 1 -2 3 -30 0
-14 9 -10 -11 -13 -15 1 -2 -3 -30 0
-14 9 -10 -11 -13 -15 -1 2 3 -30 0
-14 9 -10 -11 -13 -15 -1 2 -3 -30 0
-14 9 -10 -11 -13 -15 -1 -2 3 -30 0
-14 9 -10 -11 -13 -15 -1 -2 -3 -30 0
-14 -9 10 11 13 15 1 2 3 -30 0
-14 -9 10 11 13 15 1 2 -3 30 0
-14 -9 10 11 13 15 1 -2 3 30 0
-14 -9 10 11 13 15 1 -2 -3 30 0
-14 -9 10 11 13 15 -1 2 3 30 0
-14 -9 10 11 13 15 -1 2 -3 30 0
-14 -9 10 11 13 15 -1 -2 3 30 0
-14 -9 10 11 13 15 -1 -2 -3 -30 0
-14 -9 10 11 13 -15 1 2 3 30 0
-14 -9 10 11 13 -15 1 2 -3 30 0
-14 -9 10 11 13 -15 1 -2 3 30 0
-14 -9 10 11 13 -15 1 -2 -3 -30 0
-14 -9 10 11 13 -15 -1 2 3 30 0
-14 -9 10 11 13 -15 -1 2 -3 -30 0
-14 -9 10 11 13 -15 -1 -2 3 -30 0
-14 -9 10 11 13 -15 -1 -2 -3 -30 0
-14 -9 10 11 -13 15 1 2 3 30 0
-14 -9 10 11 -13 15 1 2 -3 30 0
-14 -9 10 11 -13 15 1 -2 3 30 0
-14 -9 10 11 -13 15 1 -2 -3 -30 0
-14 -9 10 11 -13 15 -1 2 3 30 0
-14 -9 10 11 -13 15 -1 2 -3 -30 0
-14 -9 10 11 -13 15 -1 -2 3 -30 0
-14 -9 10 11 -13 15 -1 -2 -3 -30 0
-14 -9 10 11 -13 -15 1 2 3 30 0
-14 -9 10 11 -13 -15 1 2 -3 -30 0
-14 -9 10 11 -13 -15 1 -2 3 -30 0
-14 -9 10 11 -13 -15 1 -2 -3 -30 0
-14 -9 10 11 -13 -15 -1 2 3 -30 0
-14 -9 10 11 -13 -15 -1 2 -3 -30 0
-14 -9 10 11 -13 -15 -1 -2 3 -30 0
-14 -9 10 11 -13 -15 -1 -2 -3 -30 0
-14 -9 10 -11 13 15 1 2 3 30 0
-14 -9 10 -11 13 15 1 2 -3 30 0
-14 -9 10 -11 13 15 1 -2 3 30 0
-14 -9 10 -11 13 15 1 -2 -3 -30 0
-14 -9 10 -11 13 15 -1 2 3 30 0
-14 -9 10 -11 13 15 -1 2 -3 -30 0
-14 -9 10 -11 13 15 -1 -2 3 -30 0
-14 -9 10 -11 13 15 -1 -2 -3 -30 0
-14 -9 10 -11 13 -15 1 2 3 30 0
-14 -9 10 -11 13 -15 1 2 -3 -30 0
-14 -9 10 -11 13 -15 1 -2 3 -30 0
-14 -9 10 -11 13 -15 1 -2 -3 -30 0
-14 -9 10 -11 13 -15 -1 2 3 -30 0
-14 -9 10 -11 13 -15 -1 2 -3 -30 0
-14 -9 10 -11 13 -15 -1 -2 3 -30 0
-14 -9 10 -11 13 -15 -1 -2 -3 -30 0
-14 -9 10 -11 -13 15 1 2 3 30 0
-14 -9 10 -11 -13 15 1 2 -3 -30 0
-14 -9 10 -11 -13 15 1 -2 3 -30 0
-14 -9 10 -11 -13 15 1 -2 -3 -30 0
-14 -9 10 -11 -13 15 -1 2 3 -30 0
-14 -9 10 -11 -13 15 -1 2 -3 -30 0
-14 -9 10 -11 -13 15 -1 -2 3 -30 0
-14 -9 10 -11 -13 15 -1 -2 -3 -30 0
-14 -9 10 -11 -13 -15 1 2 3 -30 0
-14 -9 10 -11 -13 -15 1 2 -3 -30 0
-14 -9 10 -11 -13 -15 1 -2 3 -30 0
-14 -9 10 -11 -13 -15 1 -2 -3 -30 0
-14 -9 10 -11 -13 -15 -1 2 3 -30 0
-14 -9 10 -11 -13 -15 -1 2 -3 -30 0
-14 -9 10 -11 -13 -15 -1 -2 3 -30 0
-14 -9 10 -11 -13 -15 -1 -2 -3 -30 0
-14 -9 -10 11 13 15 1 2 3 30 0
-14 -9 -10 11 13 15 1 2 -3 30 0
-14 -9 -10 11 13 15 1 -2 3 30 0
-14 -9 -10 11 13 15 1 -2 -3 -30 0
-14 -9 -10 11 13 15 -1 2 3 30 0
-14 -9 -10 11 13 15 -1 2 -3 -30 0
-14 -9 -10 11 13 15 -1 -2 3 -30 0
-14 -9 -10 11 13 15 -1 -2 -3 -30 0
-14 -9 -10 11 13 -15 1 2 3 30 0
-14 -9 -10 11 13 -15 1 2 -3 -30 0
-14 -9 -10 11 13 -15 1 -2 3 -30 0
-14 -9 -10 11 13 -15 1 -2 -3 -30 0
-14 -9 -10 11 13 -15 -1 2 3 -30 0
-14 -9 -10 11 13 -15 -1 2 -3 -30 0
-14 -9 -10 11 13 -15 -1 -2 3 -30 0
-14 -9 -10 11 13 -15 -1 -2 -3 -30 0
-14 -9 -10 11 -13 15 1 2 3 30 0
-14 -9 -10 11 -13 15 1 2 -3 -30 0
-14 -9 -10 11 -13 15 1 -2 3 -30 0
-14 -9 -10 11 -13 15 1 -2 -3 -30 0
-14 -9 -10 11 -13 15 -1 2 3 -30 0
-14 -9 -10 11 -13 15 -1 2 -3 -30 0
-14 -9 -10 11 -13 15 -1 -2 3 -30 0
-14 -9 -10 11 -13 15 -1 -2 -3 -30 0
-14 -9 -10 11 -13 -15 1 2 3 -30 0
-14 -9 -10 11 -13 -15 1 2 -3 -30 0
-14 -9 -10 11 -13 -15 1 -2 3 -30 0
-14 -9 -10 11 -13 -15 1 -2 -3 -30 0
-14 -9 -10 11 -13 -15 -1 2 3 -30 0
-14 -9 -10 11 -13 -15 -1 2 -3 -30 0
-14 -9 -10 11 -13 -15 -1 -2 3 -30 0
-14 -9 -10 11 -13 -15 -1 -2 -3 -30 0
-14 -9 -10 -11 13 15 1 2 3 30 0
-14 -9 -10 -11 13 15 1 2 -3 -30 0
-14 -9 -10 -11 13 15 1 -2 3 -30 0
-14 -9 -10 -11 13 15 1 -2 -3 -30 0
-14 -9 -10 -11 13 15 -1 2 3 -30 0
-14 -9 -10 -11 13 15 -1 2 -3 -30 0
-14 -9 -10 -11 13 15 -1 -2 3 -30 0
-14 -9 -10 -11 13 15 -1 -2 -3 -30 0
-14 -9 -10 -11 13 -15 1 2 3 -30 0
-14 -9 -10 -11 13 -15 1 2 -3 -30 0
-14 -9 -10 -11 13 -15 1 -2 3 -30 0
-14 -9 -10 -11 13 -15 1 -2 -3 -30 0
-14 -9 -10 -11 13 -15 -1 2 3 -30 0
-14 -9 -10 -11 13 -15 -1 2 -3 -30 0
-14 -9 -10 -11 13 -15 -1 -2 3 -30 0
-14 -9 -10 -11 13 -15 -1 -2 -3 -30 0
-14 -9 -10 -11 -13 15 1 2 3 -30 0
-14 -9 -10 -11 -13 15 1 2 -3 -30 0
-14 -9 -10 -11 -13 15 1 -2 3 -30 0
-14 -9 -10 -11 -13 15 1 -2 -3 -30 0
-14 -9 -10 -11 -13 15 -1 2 3 -30 0
-14 -9 -10 -11 -13 15 -1 2 -3 -30 0
-14 -9 -10 -11 -13 15 -1 -2 3 -30 0
-14 -9 -10 -11 -13 15 -1 -2 -3 -30 0
-14 -9 -10 -11 -13 -15 1 2 3 -30 0
-14 -9 -10 -11 -13 -15 1 2 -3 -30 0
-14 -9 -10 -11 -13 -15 1 -2 3 -30 0
-14 -9 -10 -11 -13 -15 1 -2 -3 -30 0
-14 -9 -10 -11 -13 -15 -1 2 3 -30 0
-14 -9 -10 -11 -13 -15 -1 2 -3 -30 0
-14 -9 -10 -11 -13 -15 -1 -2 3 -30 0
-14 -9 -10 -11 -13 -15 -1 -2 -3 -30 0
15 10 11 12 14 16 2 3 4 -31 0
15 10 11 12 14 16 2 3 -4 -31 0
15 10 11 12 14 16 2 -3 4 -31 0
15 10 11 12 14 16 2 -3 -4 -31 0
15 10 11 12 14 16 -2 3 4 -31 0
15 10 11 12 14 16 -2 3 -4 -31 0
15 10 11 12 14 16 -2 -3 4 -31 0
15 10 11 12 14 16 -2 -3 -4 31 0
15 10 11 12 14 -16 2 3 4 -31 0
15 10 11 12 14 -16 2 3 -4 -31 0
15 10 11 12 14 -16 2 -3 4 -31 0
15 10 11 12 14 -16 2 -3 -4 31 0
15 10 11 12 14 -16 -2 3 4 -31 0
15 10 11 12 14 -16 -2 3 -4 31 0
15 10 11 12 14 -16 -2 -3 4 31 0
15 10 11 12 14 -16 -2 -3 -4 -31 0
15 10 11 12 -14 16 2 3 4 -31 0
15 10 11 12 -14 16 2 3 -4 -31 0
15 10 11 12 -14 16 2 -3 4 -31 0
15 10 11 12 -14 16 2 -3 -4 31 0
15 10 11 12 -14 16 -2 3 4 -31 0
15 10 11 12 -14 16 -2 3 -4 31 0
15 10 11 12 -14 16 -2 -3 4 31 0
15 10 11 12 -14 16 -2 -3 -4 -31 0
15 10 11 12 -14 -16 2 3 4 -31 0
15 10 11 12 -14 -16 2 3 -4 31 0
15 10 11 12 -14 -16 2 -3 4 31 0
15 10 11 12 -14 -16 2 -3 -4 -31 0
15 10 11 12 -14 -16 -2 3 4 31 0
15 10 11 12 -14 -16 -2 3 -4 -31 0
15 10 11 12 -14 -16 -2 -3 4 -31 0
15 10 11 12 -14 -16 -2 -3 -4 -31 0
15 10 11 -12 14 16 2 3 4 -31 0
15 10 11 -12 14 16 2 3 -4 -31 0
15 10 11 -12 14 16 2 -3 4 -31 0
15 10 11 -12 14 16 2 -3 -4 31 0
15 10 11 -12 14 16 -2 3 4 -31 0
15 10 11 -12 14 16 -2 3 -4 31 0
15 10 11 -12 14 16 -2 -3 4 31 0
15 10 11 -12 14 16 -2 -3 -4 -31 0
15 10 11 -12 14 -16 2 3 4 -31 0
15 10 11 -12 14 -16 2 3 -4 31 0
15 10 11 -12 14 -16 2 -3 4 31 0
15 10 11 -12 14 -16 2 -3 -4 -31 0
15 10 11 -12 14 -16 -2 3 4 31 0
15 10 11 -12 14 -16 -2 3 -4 -31 0
15 10 11 -12 14 -16 -2 -3 4 -31 0
15 10 11 -12 14 -16 -2 -3 -4 -31 0
15 10 11 -12 -14 16 2 3 4 -31 0
15 10 11 -12 -14 16 2 3 -4 31 0
15 10 11 -12 -14 16 2 -3 4 31 0
15 10 11 -12 -14 16 2 -3 -4 -31 0
15 10 11 -12 -14 16 -2 3 4 31 0
15 10 11 -12 -14 16 -2 3 -4 -31 0
15 10 11 -12 -14 16 -2 -3 4 -31 0
15 10 11 -12 -14 16 -2 -3 -4 -31 0
15 10 11 -12 -14 -16 2 3 4 31 0
15 10 11 -12 -14 -16 2 3 -4 -31 0
15 10 11 -12 -14 -16 2 -3 4 -31 0
15 10 11 -12 -14 -16 2 -3 -4 -31 0
15 10 11 -12 -14 -16 -2 3 4 -31 0
15 10 11 -12 -14 -16 -2 3 -4 -31 0
15 10 11 -12 -14 -16 -2 -3 4 -31 0
15 10 11 -12 -14 -16 -2 -3 -4 -31 0
15 10 -11 12 14 16 2 3 4 -31 0
15 10 -11 12 14 16 2 3 -4 -31 0
15 10 -11 12 14 16 2 -3 4 -31 0
15 10 -11 12 14 16 2 -3 -4 31 0
15 10 -11 12 14 16 -2 3 4 -31 0
15 10 -11 12 14 16 -2 3 -4 31 0
15 10 -11 12 14 16 -2 -3 4 31 0
15 10 -11 12 14 16 -2 -3 -4 -31 0
15 10 -11 12 14 -16 2 3 4 -31 0
15 10 -11 12 14 -16 2 3 -4 31 0
15 10 -11 12 14 -16 2 -3 4 31 0
15 10 -11 12 14 -16 2 -3 -4 -31 0
15 10 -11 12 14 -16 -2 3 4 31 0
15 10 -11 12 14 -16 -2 3 -4 -31 0
15 10 -11 12 14 -16 -2 -3 4 -31 0
15 10 -11 12 14 -16 -2 -3 -4 -31 0
15 10 -11 12 -14 16 2 3 4 -31 0
15 10 -11 12 -14 16 2 3 -4 31 0
15 10 -11 12 -14 16 2 -3 4 31 0
15 10 -11 12 -14 16 2 -3 -4 -31 0
15 10 -11 12 -14 16 -2 3 4 31 0
15 10 -11 12 -14 16 -2 3 -4 -31 0
15 10 -11 12 -14 16 -2 -3 4 -31 0
15 10 -11 12 -14 16 -2 -3 -4 -31 0
15 10 -11 12 -14 -16 2 3 4 31 0
15 10 -11 12 -14 -16 2 3 -4 -31 0
15 10 -11 12 -14 -16 2 -3 4 -31 0
15 10 -11 12 -14 -16 2 -3 -4 -31 0
15 10 -11 12 -14 -16 -2 3 4 -31 0
15 10 -11 12 -14 -16 -2 3 -4 -31 0
15 10 -11 12 -14 -16 -2 -3 4 -31 0
15 10 -11 12 -14 -16 -2 -3 -4 -31 0
15 10 -11 -12 14 16 2 3 4 -31 0
15 10 -11 -12 14 16 2 3 -4 31 0
15 10 -11 -12 14 16 2 -3 4 31 0
15 10 -11 -12 14 16 2 -3 -4 -31 0
15 10 -11 -12 14 16 -2 3 4 31 0
15 10 -11 -12 14 16 -2 3 -4 -31 0
15 10 -11 -12 14 16 -2 -3 4 -31 0
15 10 -11 -12 14 16 -2 -3 -4 -31 0
15 10 -11 -12 14 -16 2 3 4 31 0
15 10 -11 -12 14 -16 2 3 -4 -31 0
15 10 -11 -12 14 -16 2 -3 4 -31 0
15 10 -11 -12 14 -16 2 -3 -4 -31 0
15 10 -11 -12 14 -16 -2 3 4 -31 0
15 10 -11 -12 14 -16 -2 3 -4 -31 0
15 10 -11 -12 14 -16 -2 -3 4 -31 0
15 10 -11 -12 14 -16 -2 -3 -4 -31 0
15 10 -11 -12 -14 16 2 3 4 31 0
15 10 -11 -12 -14 16 2 3 -4 -31 0
15 10 -11 -12 -14 16 2 -3 4 -31 0
15 10 -11 -12 -14 16 2 -3 -4 -31 0
15 10 -11 -12 -14 16 -2 3 4 -31 0
15 10 -11 -12 -14 16 -2 3 -4 -31 0
15 10 -11 -12 -14 16 -2 -3 4 -31 0
15 10 -11 -12 -14 16 -2 -3 -4 -31 0
15 10 -11 -12 -14 -16 2 3 4 -31 0
15 10 -11 -12 -14 -16 2 3 -4 -31 0
15 10 -11 -12 -14 -16 2 -3 4 -31 0
15 10 -11 -12 -14 -16 2 -3 -4 -31 0
15 10 -11 -12 -14 -16 -2 3 4 -31 0
15 10 -11 -12 -14 -16 -2 3 -4 -31 0
15 10 -11 -12 -14 -16 -2 -3 4 -31 0
15 10 -11 -12 -14 -16 -2 -3 -4 -31 0
15 -10 11 12 14 16 2 3 4 -31 0
15 -10 11 12 14 16 2 3 -4 -31 0
15 -10 11 12 14 16 2 -3 4 -31 0
15 -10 11 12 14 16 2 -3 -4 31 0
15 -10 11 12 14 16 -2 3 4 -31 0
15 -10 11 12 14 16 -2 3 -4 31 0
15 -10 11 12 14 16 -2 -3 4 31 0
15 -10 11 12 14 16 -2 -3 -4 -31 0
15 -10 11 12 14 -16 2 3 4 -31 0
15 -10 11 12 14 -16 2 3 -4 31 0
15 -10 11 12 14 -16 2 -3 4 31 0
15 -10 11 12 14 -16 2 -3 -4 -31 0
15 -10 11 12 14 -16 -2 3 4 31 0
15 -10 11 12 14 -16 -2 3 -4 -31 0
15 -10 11 12 14 -16 -2 -3 4 -31 0
15 -10 11 12 14 -16 -2 -3 -4 -31 0
15 -10 11 12 -14 16 2 3 4 -31 0
15 -10 11 12 -14 16 2 3 -4 31 0
15 -10 11 12 -14 16 2 -3 4 31 0
15 -10 11 12 -14 16 2 -3 -4 -31 0
15 -10 11 12 -14 16 -2 3 4 31 0
15 -10 11 12 -14 16 -2 3 -4 -31 0
15 -10 11 12 -14 16 -2 -3 4 -31 0
15 -10 11 12 -14 16 -2 -3 -4 -31 0
15 -10 11 12 -14 -16 2 3 4 31 0
15 -10 11 12 -14 -16 2 3 -4 -31 0
15 -10 11 12 -14 -16 2 -3 4 -31 0
15 -10 11 12 -14 -16 2 -3 -4 -31 0
15 -10 11 12 -14 -16 -2 3 4 -31 0
15 -10 11 12 -14 -16 -2 3 -4 -31 0
15 -10 11 12 -14 -16 -2 -3 4 -31 0
15 -10 11 12 -14 -16 -2 -3 -4 -31 0
15 -10 11 -12 14 16 2 3 4 -31 0
15 -10 11 -12 14 16 2 3 -4 31 0
15 -10 11 -12 14 16 2 -3 4 31 0
15 -10 11 -12 14 16 2 -3 -4 -31 0
15 -10 11 -12 14 16 -2 3 4 31 0
15 -10 11 -12 14 16 -2 3 -4 -31 0
15 -10 11 -12 14 16 -2 -3 4 -31 0
15 -10 11 -12 14 16 -2 -3 -4 -31 0
15 -10 11 -12 14 -16 2 3 4 31 0
15 -10 11 -12 14 -16 2 3 -4 -31 0
15 -10 11 -12 14 -16 2 -3 4 -31 0
15 -10 11 -12 14 -16 2 -3 -4 -31 0
15 -10 11 -12 14 -16 -2 3 4 -31 0
15 -10 11 -12 14 -16 -2 3 -4 -31 0
15 -10 11 -12 14 -16 -2 -3 4 -31 0
15 -10 11 -12 14 -16 -2 -3 -4 -31 0
15 -10 11 -12 -14 16 2 3 4 31 0
15 -10 11 -12 -14 16 2 3 -4 -31 0
15 -10 11 -12 -14 16 2 -3 4 -31 0
15 -10 11 -12 -14 16 2 -3 -4 -31 0
15 -10 11 -12 -14 16 -2 3 4 -31 0
15 -10 11 -12 -14 16 -2 3 -4 -31 0
15 -10 11 -12 -14 16 -2 -3 4 -31 0
15 -10 11 -12 -14 16 -2 -3 -4 -31 0
15 -10 11 -12 -14 -16 2 3 4 -31 0
15 -10 11 -12 -14 -16 2 3 -4 -31 0
15 -10 11 -12 -14 -16 2 -3 4 -31 0
15 -10 11 -12 -14 -16 2 -3 -4 -31 0
15 -10 11 -12 -14 -16 -2 3 4 -31 0
15 -10 11 -12 -14 -16 -2 3 -4 -31 0
15 -10 11 -12 -14 -16 -2 -3 4 -31 0
15 -10 11 -12 -14 -16 -2 -3 -4 -31 0
15 -10 -11 12 14 16 2 3 4 -31 0
15 -10 -11 12 14 16 2 3 -4 31 0
15 -10 -11 12 14 16 2 -3 4 31 0
15 -10 -11 12 14 16 2 -3 -4 -31 0
15 -10 -11 12 14 16 -2 3 4 31 0
15 -10 -11 12 14 16 -2 3 -4 -31 0
15 -10 -11 12 14 16 -2 -3 4 -31 0
15 -10 -11 12 14 16 -2 -3 -4 -31 0
15 -10 -11 12 14 -16 2 3 4 31 0
15 -10 -11 12 14 -16 2 3 -4 -31 0
15 -10 -11 12 14 -16 2 -3 4 -31 0
15 -10 -11 12 14 -16 2 -3 -4 -31 0
15 -10 -11 12 14 -16 -2 3 4 -31 0
15 -10 -11 12 14 -16 -2 3 -4 -31 0
15 -10 -11 12 14 -16 -2 -3 4 -31 0
15 -10 -11 12 14 -16 -2 -3 -4 -31 0
15 -10 -11 12 -14 16 2 3 4 31 0
15 -10 -11 12 -14 16 2 3 -4 -31 0
15 -10 -11 12 -14 16 2 -3 4 -31 0
15 -10 -11 12 -14 16 2 -3 -4 -31 0
15 -10 -11 12 -14 16 -2 3 4 -31 0
15 -10 -11 12 -14 16 -2 3 -4 -31 0
15 -10 -11 12 -14 16 -2 -3 4 -31 0
15 -10 -11 12 -14 16 -2 -3 -4 -31 0
15 -10 -11 12 -14 -16 2 3 4 -31 0
15 -10 -11 12 -14 -16 2 3 -4 -31 0
15 -10 -11 12 -14 -16 2 -3 4 -31 0
15 -10 -11 12 -14 -16 2 -3 -4 -31 0
15 -10 -11 12 -14 -16 -2 3 4 -31 0
15 -10 -11 12 -14 -16 -2 3 -4 -31 0
15 -10 -11 12 -14 -16 -2 -3 4 -31 0
15 -10 -11 12 -14 -16 -2 -3 -4 -31 0
15 -10 -11 -12 14 16 2 3 4 31 0
15 -10 -11 -12 14 16 2 3 -4 -31 0
15 -10 -11 -12 14 16 2 -3 4 -31 0
15 -10 -11 -12 14 16 2 -3 -4 -31 0
15 -10 -11 -12 14 16 -2 3 4 -31 0
15 -10 -11 -12 14 16 -2 3 -4 -31 0
15 -10 -11 -12 14 16 -2 -3 4 -31 0
15 -10 -11 -12 14 16 -2 -3 -4 -31 0
15 -10 -11 -12 14 -16 2 3 4 -31 0
15 -10 -11 -12 14 -16 2 3 -4 -31 0
15 -10 -11 -12 14 -16 2 -3 4 -31 0
15 -10 -11 -12 14 -16 2 -3 -4 -31 0
15 -10 -11 -12 14 -16 -2 3 4 -31 0
15 -10 -11 -12 14 -16 -2 3 -4 -31 0
15 -10 -11 -12 14 -16 -2 -3 4 -31 0
15 -10 -11 -12 14 -16 -2 -3 -4 -31 0
15 -10 -11 -12 -14 16 2 3 4 -31 0
15 -10 -11 -12 -14 16 2 3 -4 -31 0
15 -10 -11 -12 -14 16 2 -3 4 -31 0
15 -10 -11 -12 -14 16 2 -3 -4 -31 0
15 -10 -11 -12 -14 16 -2 3 4 -31 0
15 -10 -11 -12 -14 16 -2 3 -4 -31 0
15 -10 -11 -12 -14 16 -2 -3 4 -31 0
15 -10 -11 -12 -14 16 -2 -3 -4 -31 0
15 -10 -11 -12 -14 -16 2 3 4 -31 0
15 -10 -11 -12 -14 -16 2 3 -4 -31 0
15 -10 -11 -12 -14 -16 2 -3 4 -31 0
15 -10 -11 -12 -14 -16 2 -3 -4 -31 0
15 -10 -11 -12 -14 -16 -2 3 4 -31 0
15 -10 -11 -12 -14 -16 -2 3 -4 -31 0
15 -10 -11 -12 -14 -16 -2 -3 4 -31 0
15 -10 -11 -12 -14 -16 -2 -3 -4 -31 0
-15 10 11 12 14 16 2 3 4 -31 0
-15 10 11 12 14 16 2 3 -4 -31 0
-15 10 11 12 14 16 2 -3 4 -31 0
-15 10 11 12 14 16 2 -3 -4 31 0
-15 10 11 12 14 16 -2 3 4 -31 0
-15 10 11 12 14 16 -2 3 -4 31 0
-15 10 11 12 14 16 -2 -3 4 31 0
-15 10 11 12 14 16 -2 -3 -4 31 0
-15 10 11 12 14 -16 2 3 4 -31 0
-15 10 11 12 14 -16 2 3 -4 31 0
-15 10 11 12 14 -16 2 -3 4 31 0
-15 10 11 12 14 -16 2 -3 -4 31 0
-15 10 11 12 14 -16 -2 3 4 31 0
-15 10 11 12 14 -16 -2 3 -4 31 0
-15 10 11 12 14 -16 -2 -3 4 31 0
-15 10 11 12 14 -16 -2 -3 -4 -31 0
-15 10 11 12 -14 16 2 3 4 -31 0
-15 10 11 12 -14 16 2 3 -4 31 0
-15 10 11 12 -14 16 2 -3 4 31 0
-15 10 11 12 -14 16 2 -3 -4 31 0
-15 10 11 12 -14 16 -2 3 4 31 0
-15 10 11 12 -14 16 -2 3 -4 31 0
-15 10 11 12 -14 16 -2 -3 4 31 0
-15 10 11 12 -14 16 -2 -3 -4 -31 0
-15 10 11 12 -14 -16 2 3 4 31 0
-15 10 11 12 -14 -16 2 3 -4 31 0
-15 10 11 12 -14 -16 2 -3 4 31 0
-15 10 11 12 -14 -16 2 -3 -4 -31 0
-15 10 11 12 -14 -16 -2 3 4 31 0
-15 10 11 12 -14 -16 -2 3 -4 -31 0
-15 10 11 12 -14 -16 -2 -3 4 -31 0
-15 10 11 12 -14 -16 -2 -3 -4 -31 0
-15 10 11 -12 14 16 2 3 4 -31 0
-15 10 11 -12 14 16 2 3 -4 31 0
-15 10 11 -12 14 16 2 -3 4 31 0
-15 10 11 -12 14 16 2 -3 -4 31 0
-15 10 11 -12 14 16 -2 3 4 31 0
-15 10 11 -12 14 16 -2 3 -4 31 0
-15 10 11 -12 14 16 -2 -3 4 31 0
-15 10 11 -12 14 16 -2 -3 -4 -31 0
-15 10 11 -12 14 -16 2 3 4 31 0
-15 10 11 -12 14 -16 2 3 -4 31 0
-15 10 11 -12 14 -16 2 -3 4 31 0
-15 10 11 -12 14 -16 2 -3 -4 -31 0
-15 10 11 -12 14 -16 -2 3 4 31 0
-15 10 11 -12 14 -16 -2 3 -4 -31 0
-15 10 11 -12 14 -16 -2 -3 4 -31 0
-15 10 11 -12 14 -16 -2 -3 -4 -31 0
-15 10 11 -12 -14 16 2 3 4 31 0
-15 10 11 -12 -14 16 2 3 -4 31 0
-15 10 11 -12 -14 16 2 -3 4 31 0
-15 10 11 -12 -14 16 2 -3 -4 -31 0
-15 10 11 -12 -14 16 -2 3 4 31 0
-15 10 11 -12 -14 16 -2 3 -4 -31 0
-15 10 11 -12 -14 16 -2 -3 4 -31 0
-15 10 11 -12 -14 16 -2 -3 -4 -31 0
-15 10 11 -12 -14 -16 2 3 4 31 0
-15 10 11 -12 -14 -16 2 3 -4 -31 0
-15 10 11 -12 -14 -16 2 -3 4 -31 0
-15 10 11 -12 -14 -16 2 -3 -4 -31 0
-15 10 11 -12 -14 -16 -2 3 4 -31 0
-15 10 11 -12 -14 -16 -2 3 -4 -31 0
-15 10 11 -12 -14 -16 -2 -3 4 -31 0
-15 10 11 -12 -14 -16 -2 -3 -4 -31 0
-15 10 -11 12 14 16 2 3 4 -31 0
-15 10 -11 12 14 16 2 3 -4 31 0
-15 10 -11 12 14 16 2 -3 4 31 0
-15 10 -11 12 14 16 2 -3 -4 31 0
-15 10 -11 12 14 16 -2 3 4 31 0
-15 10 -11 12 14 16 -2 3 -4 31 0
-15 10 -11 12 14 16 -2 -3 4 31 0
-15 10 -11 12 14 16 -2 -3 -4 -31 0
-15 10 -11 12 14 -16 2 3 4 31 0
-15 10 -11 12 14 -16 2 3 -4 31 0
-15 10 -11 12 14 -16 2 -3 4 31 0
-15 10 -11 12 14 -16 2 -3 -4 -31 0
-15 10 -11 12 14 -16 -2 3 4 31 0
-15 10 -11 12 14 -16 -2 3 -4 -31 0
-15 10 -11 12 14 -16 -2 -3 4 -31 0
-15 10 -11 12 14 -16 -2 -3 -4 -31 0
-15 10 -11 12 -14 16 2 3 4 31 0
-15 10 -11 12 -14 16 2 3 -4 31 0
-15 10 -11 12 -14 16 2 -3 4 31 0
-15 10 -11 12 -14 16 2 -3 -4 -31 0
-15 10 -11 12 -14 16 -2 3 4 31 0
-15 10 -11 12 -14 16 -2 3 -4 -31 0
-15 10 -11 12 -14 16 -2 -3 4 -31 0
-15 10 -11 12 -14 16 -2 -3 -4 -31 0
-15 10 -11 12 -14 -16 2 3 4 31 0
-15 10 -11 12 -14 -16 2 3 -4 -31 0
-15 10 -11 12 -14 -16 2 -3 4 -31 0
-15 10 -11 12 -14 -16 2 -3 -4 -31 0
-15 10 -11 12 -14 -16 -2 3 4 -31 0
-15 10 -11 12 -14 -16 -2 3 -4 -31 0
-15 10 -11 12 -14 -16 -2 -3 4 -31 0
-15 10 -11 12 -14 -16 -2 -3 -4 -31 0
-15 10 -11 -12 14 16 2 3 4 31 0
-15 10 -11 -12 14 16 2 3 -4 31 0
-15 10 -11 -12 14 16 2 -3 4 31 0
-15 10 -11 -12 14 16 2 -3 -4 -31 0
-15 10 -11 -12 14 16 -2 3 4 31 0
-15 10 -11 -12 14 16 -2 3 -4 -31 0
-15 10 -11 -12 14 16 -2 -3 4 -31 0
-15 10 -11 -12 14 16 -2 -3 -4 -31 0
-15 10 -11 -12 14 -16 2 3 4 31 0
-15 10 -11 -12 14 -16 2 3 -4 -31 0
-15 10 -11 -12 14 -16 2 -3 4 -31 0
-15 10 -11 -12 14 -16 2 -3 -4 -31 0
-15 10 -11 -12 14 -16 -2 3 4 -31 0
-15 10 -11 -12 14 -16 -2 3 -4 -31 0
-15 10 -11 -12 14 -16 -2 -3 4 -31 0
-15 10 -11 -12 14 -16 -2 -3 -4 -31 0
-15 10 -11 -12 -14 16 2 3 4 31 0
-15 10 -11 -12 -14 16 2 3 -4 -31 0
-15 10 -11 -12 -14 16 2 -3 4 -31 0
-15 10 -11 -12 -14 16 2 -3 -4 -31 0
-15 10 -11 -12 -14 16 -2 3 4 -31 0
-15 10 -11 -12 -14 16 -2 3 -4 -31 0
-15 10 -11 -12 -14 16 -2 -3 4 -31 0
-15 10 -11 -12 -14 16 -2 -3 -4 -31 0
-15 10 -11 -12 -14 -16 2 3 4 -31 0
-15 10 -11 -12 -14 -16 2 3 -4 -31 0
-15 10 -11 -12 -14 -16 2 -3 4 -31 0
-15 10 -11 -12 -14 -16 2 -3 -4 -31 0
-15 10 -11 -12 -14 -16 -2 3 4 -31 0
-15 10 -11 -12 -14 -16 -2 3 -4 -31 0
-15 10 -11 -12 -14 -16 -2 -3 4 -31 0
-15 10 -11 -12 -14 -16 -2 -3 -4 -31 0
-15 -10 11 12 14 16 2 3 4 -31 0
-15 -10 11 12 14 16 2 3 -4 31 0
-15 -10 11 12 14 16 2 -3 4 31 0
-15 -10 11 12 14 16 2 -3 -4 31 0
-15 -10 11 12 14 16 -2 3 4 31 0
-15 -10 11 12 14 16 -2 3 -4 31 0
-15 -10 11 12 14 16 -2 -3 4 31 0
-15 -10 11 12 14 16 -2 -3 -4 -31 0
-15 -10 11 12 14 -16 2 3 4 31 0
-15 -10 11 12 14 -16 2 3 -4 31 0
-15 -10 11 12 14 -16 2 -3 4 31 0
-15 -10 11 12 14 -16 2 -3 -4 -31 0
-15 -10 11 12 14 -16 -2 3 4 31 0
-15 -10 11 12 14 -16 -2 3 -4 -31 0
-15 -10 11 12 14 -16 -2 -3 4 -31 0
-15 -10 11 12 14 -16 -2 -3 -4 -31 0
-15 -10 11 12 -14 16 2 3 4 31 0
-15 -10 11 12 -14 16 2 3 -4 31 0
-15 -10 11 12 -14 16 2 -3 4 31 0
-15 -10 11 12 -14 16 2 -3 -4 -31 0
-15 -10 11 12 -14 16 -2 3 4 31 0
-15 -10 11 12 -14 16 -2 3 -4 -31 0
-15 -10 11 12 -14 16 -2 -3 4 -31 0
-15 -10 11 12 -14 16 -2 -3 -4 -31 0
-15 -10 11 12 -14 -16 2 3 4 31 0
-15 -10 11 12 -14 -16 2 3 -4 -31 0
-15 -10 11 12 -14 -16 2 -3 4 -31 0
-15 -10 11 12 -14 -16 2 -3 -4 -31 0
-15 -10 11 12 -14 -16 -2 3 4 -31 0
-15 -10 11 12 -14 -16 -2 3 -4 -31 0
-15 -10 11 12 -14 -16 -2 -3 4 -31 0
-15 -10 11 12 -14 -16 -2 -3 -4 -31 0
-15 -10 11 -12 14 16 2 3 4 31 0
-15 -10 11 -12 14 16 2 3 -4 31 0
-15 -10 11 -12 14 16 2 -3 4 31 0
-15 -10 11 -12 14 16 2 -3 -4 -31 0
-15 -10 11 -12 14 16 -2 3 4 31 0
-15 -10 11 -12 14 16 -2 3 -4 -31 0
-15 -10 11 -12 14 16 -2 -3 4 -31 0
-15 -10 11 -12 14 16 -2 -3 -4 -31 0
-15 -10 11 -12 14 -16 2 3 4 31 0
-15 -10 11 -12 14 -16 2 3 -4 -31 0
-15 -10 11 -12 14 -16 2 -3 4 -31 0
-15 -10 11 -12 14 -16 2 -3 -4 -31 0
-15 -10 11 -12 14 -16 -2 3 4 -31 0
-15 -10 11 -12 14 -16 -2 3 -4 -31 0
-15 -10 11 -12 14 -16 -2 -3 4 -31 0
-15 -10 11 -12 14 -16 -2 -3 -4 -31 0
-15 -10 11 -12 -14 16 2 3 4 31 0
-15 -10 11 -12 -14 16 2 3 -4 -31 0
-15 -10 11 -12 -14 16 2 -3 4 -31 0
-15 -10 11 -12 -14 16 2 -3 -4 -31 0
-15 -10 11 -12 -14 16 -2 3 4 -31 0
-15 -10 11 -12 -14 16 -2 3 -4 -31 0
-15 -10 11 -12 -14 16 -2 -3 4 -31 0
-15 -10 11 -12 -14 16 -2 -3 -4 -31 0
-15 -10 11 -12 -14 -16 2 3 4 -31 0
-15 -10 11 -12 -14 -16 2 3 -4 -31 0
-15 -10 11 -12 -14 -16 2 -3 4 -31 0
-15 -10 11 -12 -14 -16 2 -3 -4 -31 0
-15 -10 11 -12 -14 -16 -2 3 4 -31 0
-15 -10 11 -12 -14 -16 -2 3 -4 -31 0
-15 -10 11 -12 -14 -16 -2 -3 4 -31 0
-15 -10 11 -12 -14 -16 -2 -3 -4 -31 0
-15 -10 -11 12 14 16 2 3 4 31 0
-15 -10 -11 12 14 16 2 3 -4 31 0
-15 -10 -11 12 14 16 2 -3 4 31 0
-15 -10 -11 12 14 16 2 -3 -4 -31 0
-15 -10 -11 12 14 16 -2 3 4 31 0
-15 -10 -11 12 14 16 -2 3 -4 -31 0
-15 -10 -11 12 14 16 -2 -3 4 -31 0
-15 -10 -11 12 14 16 -2 -3 -4 -31 0
-15 -10 -11 12 14 -16 2 3 4 31 0
-15 -10 -11 12 14 -16 2 3 -4 -31 0
-15 -10 -11 12 14 -16 2 -3 4 -31 0
-15 -10 -11 12 14 -16 2 -3 -4 -31 0
-15 -10 -11 12 14 -16 -2 3 4 -31 0
-15 -10 -11 12 14 -16 -2 3 -4 -31 0
-15 -10 -11 12 14 -16 -2 -3 4 -31 0
-15 -10 -11 12 14 -16 -2 -3 -4 -31 0
-15 -10 -11 12 -14 16 2 3 4 31 0
-15 -10 -11 12 -14 16 2 3 -4 -31 0
-15 -10 -11 12 -14 16 2 -3 4 -31 0
-15 -10 -11 12 -14 16 2 -3 -4 -31 0
-15 -10 -11 12 -14 16 -2 3 4 -31 0
-15 -10 -11 12 -14 16 -2 3 -4 -31 0
-15 -10 -11 12 -14 16 -2 -3 4 -31 0
-15 -10 -11 12 -14 16 -2 -3 -4 -31 0
-15 -10 -11 12 -14 -16 2 3 4 -31 0
-15 -10 -11 12 -14 -16 2 3 -4 -31 0
-15 -10 -11 12 -14 -16 2 -3 4 -31 0
-15 -10 -11 12 -14 -16 2 -3 -4 -31 0
-15 -10 -11 12 -14 -16 -2 3 4 -31 0
-15 -10 -11 12 -14 -16 -2 3 -4 -31 0
-15 -10 -11 12 -14 -16 -2 -3 4 -31 0
-15 -10 -11 12 -14 -16 -2 -3 -4 -31 0
-15 -10 -11 -12 14 16 2 3 4 31 0
-15 -10 -11 -12 14 16 2 3 -4 -31 0
-15 -10 -11 -12 14 16 2 -3 4 -31 0
-15 -10 -11 -12 14 16 2 -3 -4 -31 0
-15 -10 -11 -12 14 16 -2 3 4 -31 0
-15 -10 -11 -12 14 16 -2 3 -4 -31 0
-15 -10 -11 -12 14 16 -2 -3 4 -31 0
-15 -10 -11 -12 14 16 -2 -3 -4 -31 0
-15 -10 -11 -12 14 -16 2 3 4 -31 0
-15 -10 -11 -12 14 -16 2 3 -4 -31 0
-15 -10 -11 -12 14 -16 2 -3 4 -31 0
-15 -10 -11 -12 14 -16 2 -3 -4 -31 0
-15 -10 -11 -12 14 -16 -2 3 4 -31 0
-15 -10 -11 -12 14 -16 -2 3 -4 -31 0
-15 -10 -11 -12 14 -16 -2 -3 4 -31 0
-15 -10 -11 -12 14 -16 -2 -3 -4 -31 0
-15 -10 -11 -12 -14 16 2 3 4 -31 0
-15 -10 -11 -12 -14 16 2 3 -4 -31 0
-15 -10 -11 -12 -14 16 2 -3 4 -31 0
-15 -10 -11 -12 -14 16 2 -3 -4 -31 0
-15 -10 -11 -12 -14 16 -2 3 4 -31 0
-15 -10 -11 -12 -14 16 -2 3 -4 -31 0
-15 -10 -11 -12 -14 16 -2 -3 4 -31 0
-15 -10 -11 -12 -14 16 -2 -3 -4 -31 0
-15 -10 -11 -12 -14 -16 2 3 4 -31 0
-15 -10 -11 -12 -14 -16 2 3 -4 -31 0
-15 -10 -11 -12 -14 -16 2 -3 4 -31 0
-15 -10 -11 -12 -14 -16 2 -3 -4 -31 0
-15 -10 -11 -12 -14 -16 -2 3 4 -31 0
-15 -10 -11 -12 -14 -16 -2 3 -4 -31 0
-15 -10 -11 -12 -14 -16 -2 -3 4 -31 0
-15 -10 -11 -12 -14 -16 -2 -3 -4 -31 0
16 11 12 9 15 13 3 4 1 -32 0
16 11 12 9 15 13 3 4 -1 -32 0
16 11 12 9 15 13 3 -4 1 -32 0
16 11 12 9 15 13 3 -4 -1 -32 0
16 11 12 9 15 13 -3 4 1 -32 0
16 11 12 9 15 13 -3 4 -1 -32 0
16 11 12 9 15 13 -3 -4 1 -32 0
16 11 12 9 15 13 -3 -4 -1 32 0
16 11 12 9 15 -13 3 4 1 -32 0
16 11 12 9 15 -13 3 4 -1 -32 0
16 11 12 9 15 -13 3 -4 1 -32 0
16 11 12 9 15 -13 3 -4 -1 32 0
16 11 12 9 15 -13 -3 4 1 -32 0
16 11 12 9 15 -13 -3 4 -1 32 0
16 11 12 9 15 -13 -3 -4 1 32 0
16 11 12 9 15 -13 -3 -4 -1 -32 0
16 11 12 9 -15 13 3 4 1 -32 0
16 11 12 9 -15 13 3 4 -1 -32 0
16 11 12 9 -15 13 3 -4 1 -32 0
16 11 12 9 -15 13 3 -4 -1 32 0
16 11 12 9 -15 13 -3 4 1 -32 0
16 11 12 9 -15 13 -3 4 -1 32 0
16 11 12 9 -15 13 -3 -4 1 32 0
16 11 12 9 -15 13 -3 -4 -1 -32 0
16 11 12 9 -15 -13 3 4 1 -32 0
16 11 12 9 -15 -13 3 4 -1 32 0
16 11 12 9 -15 -13 3 -4 1 32 0
16 11 12 9 -15 -13 3 -4 -1 -32 0
16 11 12 9 -15 -13 -3 4 1 32 0
16 11 12 9 -15 -13 -3 4 -1 -32 0
16 11 12 9 -15 -13 -3 -4 1 -32 0
16 11 12 9 -15 -13 -3 -4 -1 -32 0
16 11 12 -9 15 13 3 4 1 -32 0
16 11 12 -9 15 13 3 4 -1 -32 0
16 11 12 -9 15 13 3 -4 1 -32 0
16 11 12 -9 15 13 3 -4 -1 32 0
16 11 12 -9 15 13 -3 4 1 -32 0
16 11 12 -9 15 13 -3 4 -1 32 0
16 11 12 -9 15 13 -3 -4 1 32 0
16 11 12 -9 15 13 -3 -4 -1 -32 0
16 11 12 -9 15 -13 3 4 1 -32 0
16 11 12 -9 15 -13 3 4 -1 32 0
16 11 12 -9 15 -13 3 -4 1 32 0
16 11 12 -9 15 -13 3 -4 -1 -32 0
16 11 12 -9 15 -13 -3 4 1 32 0
16 11 12 -9 15 -13 -3 4 -1 -32 0
16 11 12 -9 15 -13 -3 -4 1 -32 0
16 11 12 -9 15 -13 -3 -4 -1 -32 0
16 11 12 -9 -15 13 3 4 1 -32 0
16 11 12 -9 -15 13 3 4 -1 32 0
16 11 12 -9 -15 13 3 -4 1 32 0
16 11 12 -9 -15 13 3 -4 -1 -32 0
16 11 12 -9 -15 13 -3 4 1 32 0
16 11 12 -9 -15 13 -3 4 -1 -32 0
16 11 12 -9 -15 13 -3 -4 1 -32 0
16 11 12 -9 -15 13 -3 -4 -1 -32 0
16 11 12 -9 -15 -13 3 4 1 32 0
16 11 12 -9 -15 -13 3 4 -1 -32 0
16 11 12 -9 -15 -13 3 -4 1 -32 0
16 11 12 -9 -15 -13 3 -4 -1 -32 0
16 11 12 -9 -15 -13 -3 4 1 -32 0
16 11 12 -9 -15 -13 -3 4 -1 -32 0
16 11 12 -9 -15 -13 -3 -4 1 -32 0
16 11 12 -9 -15 -13 -3 -4 -1 -32 0
16 11 -12 9 15 13 3 4 1 -32 0
16 11 -12 9 15 13 3 4 -1 -32 0
16 11 -12 9 15 13 3 -4 1 -32 0
16 11 -12 9 15 13 3 -4 -1 32 0
16 11 -12 9 15 13 -3 4 1 -32 0
16 11 -12 9 15 13 -3 4 -1 32 0
16 11 -12 9 15 13 -3 -4 1 32 0
16 11 -12 9 15 13 -3 -4 -1 -32 0
16 11 -12 9 15 -13 3 4 1 -32 0
16 11 -12 9 15 -13 3 4 -1 32 0
16 11 -12 9 15 -13 3 -4 1 32 0
16 11 -12 9 15 -13 3 -4 -1 -32 0
16 11 -12 9 15 -13 -3 4 1 32 0
16 11 -12 9 15 -13 -3 4 -1 -32 0
16 11 -12 9 15 -13 -3 -4 1 -32 0
16 11 -12 9 15 -13 -3 -4 -1 -32 0
16 11 -12 9 -15 13 3 4 1 -32 0
16 11 -12 9 -15 13 3 4 -1 32 0
16 11 -12 9 -15 13 3 -4 1 32 0
16 11 -12 9 -15 13 3 -4 -1 -32 0
16 11 -12 9 -15 13 -3 4 1 32 0
16 11 -12 9 -15 13 -3 4 -1 -32 0
16 11 -12 9 -15 13 -3 -4 1 -32 0
16 11 -12 9 -15 13 -3 -4 -1 -32 0
16 11 -12 9 -15 -13 3 4 1 32 0
16 11 -12 9 -15 -13 3 4 -1 -32 0
16 11 -12 9 -15 -13 3 -4 1 -32 0
16 11 -12 9 -15 -13 3 -4 -1 -32 0
16 11 -12 9 -15 -13 -3 4 1 -32 0
16 11 -12 9 -15 -13 -3 4 -1 -32 0
16 11 -12 9 -15 -13 -3 -4 1 -32 0
16 11 -12 9 -15 -13 -3 -4 -1 -32 0
16 11 -12 -9 15 13 3 4 1 -32 0
16 11 -12 -9 15 13 3 4 -1 32 0
16 11 -12 -9 15 13 3 -4 1 32 0
16 11 -12 -9 15 13 3 -4 -1 -32 0
16 11 -12 -9 15 13 -3 4 1 32 0
16 11 -12 -9 15 13 -3 4 -1 -32 0
16 11 -12 -9 15 13 -3 -4 1 -32 0
16 11 -12 -9 15 13 -3 -4 -1 -32 0
16 11 -12 -9 15 -13 3 4 1 32 0
16 11 -12 -9 15 -13 3 4 -1 -32 0
16 11 -12 -9 15 -13 3 -4 1 -32 0
16 11 -12 -9 15 -13 3 -4 -1 -32 0
16 11 -12 -9 15 -13 -3 4 1 -32 0
16 11 -12 -9 15 -13 -3 4 -1 -32 0
16 11 -12 -9 15 -13 -3 -4 1 -32 0
16 11 -12 -9 15 -13 -3 -4 -1 -32 0
16 11 -12 -9 -15 13 3 4 1 32 0
16 11 -12 -9 -15 13 3 4 -1 -32 0
16 11 -12 -9 -15 13 3 -4 1 -32 0
16 11 -12 -9 -15 13 3 -4 -1 -32 0
16 11 -12 -9 -15 13 -3 4 1 -32 0
16 11 -12 -9 -15 13 -3 4 -1 -32 0
16 11 -12 -9 -15 13 -3 -4 1 -32 0
16 11 -12 -9 -15 13 -3 -4 -1 -32 0
16 11 -12 -9 -15 -13 3 4 1 -32 0
16 11 -12 -9 -15 -13 3 4 -1 -32 0
16 11 -12 -9 -15 -13 3 -4 1 -32 0
16 11 -12 -9 -15 -13 3 -4 -1 -32 0
16 11 -12 -9 -15 -13 -3 4 1 -32 0
16 11 -12 -9 -15 -13 -3 4 -1 -32 0
16 11 -12 -9 -15 -13 -3 -4 1 -32 0
16 11 -12 -9 -15 -13 -3 -4 -1 -32 0
16 -11 12 9 15 13 3 4 1 -32 0
16 -11 12 9 15 13 3 4 -1 -32 0
16 -11 12 9 15 13 3 -4 1 -32 0
16 -11 12 9 15 13 3 -4 -1 32 0
16 -11 12 9 15 13 -3 4 1 -32 0
16 -11 12 9 15 13 -3 4 -1 32 0
16 -11 12 9 15 13 -3 -4 1 32 0
16 -11 12 9 15 13 -3 -4 -1 -32 0
16 -11 12 9 15 -13 3 4 1 -32 0
16 -11 12 9 15 -13 3 4 -1 32 0
16 -11 12 9 15 -13 3 -4 1 32 0
16 -11 12 9 15 -13 3 -4 -1 -32 0
16 -11 12 9 15 -13 -3 4 1 32 0
16 -11 12 9 15 -13 -3 4 -1 -32 0
16 -11 12 9 15 -13 -3 -4 1 -32 0
16 -11 12 9 15 -13 -3 -4 -1 -32 0
16 -11 12 9 -15 13 3 4 1 -32 0
16 -11 12 9 -15 13 3 4 -1 32 0
16 -11 12 9 -15 13 3 -4 1 32 0
16 -11 12 9 -15 13 3 -4 -1 -32 0
16 -11 12 9 -15 13 -3 4 1 32 0
16 -11 12 9 -15 13 -3 4 -1 -32 0
16 -11 12 9 -15 13 -3 -4 1 -32 0
16 -11 12 9 -15 13 -3 -4 -1 -32 0
16 -11 12 9 -15 -13 3 4 1 32 0
16 -11 12 9 -15 -13 3 4 -1 -32 0
16 -11 12 9 -15 -13 3 -4 1 -32 0
16 -11 12 9 -15 -13 3 -4 -1 -32 0
16 -11 12 9 -15 -13 -3 4 1 -32 0
16 -11 12 9 -15 -13 -3 4 -1 -32 0
16 -11 12 9 -15 -13 -3 -4 1 -32 0
16 -11 12 9 -15 -13 -3 -4 -1 -32 0
16 -11 12 -9 15 13 3 4 1 -32 0
16 -11 12 -9 15 13 3 4 -1 32 0
16 -11 12 -9 15 13 3 -4 1 32 0
16 -11 12 -9 15 13 3 -4 -1 -32 0
16 -11 12 -9 15 13 -3 4 1 32 0
16 -11 12 -9 15 13 -3 4 -1 -32 0
16 -11 12 -9 15 13 -3 -4 1 -32 0
16 -11 12 -9 15 13 -3 -4 -1 -32 0
16 -11 12 -9 15 -13 3 4 1 32 0
16 -11 12 -9 15 -13 3 4 -1 -32 0
16 -11 12 -9 15 -13 3 -4 1 -32 0
16 -11 12 -9 15 -13 3 -4 -1 -32 0
16 -11 12 -9 15 -13 -3 4 1 -32 0
16 -11 12 -9 15 -13 -3 4 -1 -32 0
16 -11 12 -9 15 -13 -3 -4 1 -32 0
16 -11 12 -9 15 -13 -3 -4 -1 -32 0
16 -11 12 -9 -15 13 3 4 1 32 0
16 -11 12 -9 -15 13 3 4 -1 -32 0
16 -11 12 -9 -15 13 3 -4 1 -32 0
16 -11 12 -9 -15 13 3 -4 -1 -32 0
16 -11 12 -9 -15 13 -3 4 1 -32 0
16 -11 12 -9 -15 13 -3 4 -1 -32 0
16 -11 12 -9 -15 13 -3 -4 1 -32 0
16 -11 12 -9 -15 13 -3 -4 -1 -32 0
16 -11 12 -9 -15 -13 3 4 1 -32 0
16 -11 12 -9 -15 -13 3 4 -1 -32 0
16 -11 12 -9 -15 -13 3 -4 1 -32 0
16 -11 12 -9 -15 -13 3 -4 -1 -32 0
16 -11 12 -9 -15 -13 -3 4 1 -32 0
16 -11 12 -9 -15 -13 -3 4 -1 -32 0
16 -11 12 -9 -15 -13 -3 -4 1 -32 0
16 -11 12 -9 -15 -13 -3 -4 -1 -32 0
16 -11 -12 9 15 13 3 4 1 -32 0
16 -11 -12 9 15 13 3 4 -1 32 0
16 -11 -12 9 15 13 3 -4 1 32 0
16 -11 -12 9 15 13 3 -4 -1 -32 0
16 -11 -12 9 15 13 -3 4 1 32 0
16 -11 -12 9 15 13 -3 4 -1 -32 0
16 -11 -12 9 15 13 -3 -4 1 -32 0
16 -11 -12 9 15 13 -3 -4 -1 -32 0
16 -11 -12 9 15 -13 3 4 1 32 0
16 -11 -12 9 15 -13 3 4 -1 -32 0
16 -11 -12 9 15 -13 3 -4 1 -32 0
16 -11 -12 9 15 -13 3 -4 -1 -32 0
16 -11 -12 9 15 -13 -3 4 1 -32 0
16 -11 -12 9 15 -13 -3 4 -1 -32 0
16 -11 -12 9 15 -13 -3 -4 1 -32 0
16 -11 -12 9 15 -13 -3 -4 -1 -32 0
16 -11 -12 9 -15 13 3 4 1 32 0
16 -11 -12 9 -15 13 3 4 -1 -32 0
16 -11 -12 9 -15 13 3 -4 1 -32 0
16 -11 -12 9 -15 13 3 -4 -1 -32 0
16 -11 -12 9 -15 13 -3 4 1 -32 0
16 -11 -12 9 -15 13 -3 4 -1 -32 0
16 -11 -12 9 -15 13 -3 -4 1 -32 0
16 -11 -12 9 -15 13 -3 -4 -1 -32 0
16 -11 -12 9 -15 -13 3 4 1 -32 0
16 -11 -12 9 -15 -13 3 4 -1 -32 0
16 -11 -12 9 -15 -13 3 -4 1 -32 0
16 -11 -12 9 -15 -13 3 -4 -1 -32 0
16 -11 -12 9 -15 -13 -3 4 1 -32 0
16 -11 -12 9 -15 -13 -3 4 -1 -32 0
16 -11 -12 9 -15 -13 -3 -4 1 -32 0
16 -11 -12 9 -15 -13 -3 -4 -1 -32 0
16 -11 -12 -9 15 13 3 4 1 32 0
16 -11 -12 -9 15 13 3 4 -1 -32 0
16 -11 -12 -9 15 13 3 -4 1 -32 0
16 -11 -12 -9 15 13 3 -4 -1 -32 0
16 -11 -12 -9 15 13 -3 4 1 -32 0
16 -11 -12 -9 15 13 -3 4 -1 -32 0
16 -11 -12 -9 15 13 -3 -4 1 -32 0
16 -11 -12 -9 15 13 -3 -4 -1 -32 0
16 -11 -12 -9 15 -13 3 4 1 -32 0
16 -11 -12 -9 15 -13 3 4 -1 -32 0
16 -11 -12 -9 15 -13 3 -4 1 -32 0
16 -11 -12 -9 15 -13 3 -4 -1 -32 0
16 -11 -12 -9 15 -13 -3 4 1 -32 0
16 -11 -12 -9 15 -13 -3 4 -1 -32 0
16 -11 -12 -9 15 -13 -3 -4 1 -32 0
16 -11 -12 -9 15 -13 -3 -4 -1 -32 0
16 -11 -12 -9 -15 13 3 4 1 -32 0
16 -11 -12 -9 -15 13 3 4 -1 -32 0
16 -11 -12 -9 -15 13 3 -4 1 -32 0
16 -11 -12 -9 -15 13 3 -4 -1 -32 0
16 -11 -12 -9 -15 13 -3 4 1 -32 0
16 -11 -12 -9 -15 13 -3 4 -1 -32 0
16 -11 -12 -9 -15 13 -3 -4 1 -32 0
16 -11 -12 -9 -15 13 -3 -4 -1 -32 0
16 -11 -12 -9 -15 -13 3 4 1 -32 0
16 -11 -12 -9 -15 -13 3 4 -1 -32 0
16 -11 -12 -9 -15 -13 3 -4 1 -32 0
16 -11 -12 -9 -15 -13 3 -4 -1 -32 0
16 -11 -12 -9 -15 -13 -3 4 1 -32 0
16 -11 -12 -9 -15 -13 -3 4 -1 -32 0
16 -11 -12 -9 -15 -13 -3 -4 1 -32 0
16 -11 -12 -9 -15 -13 -3 -4 -1 -32 0
-16 11 12 9 15 13 3 4 1 -32 0
-16 11 12 9 15 13 3 4 -1 -32 0
-16 11 12 9 15 13 3 -4 1 -32 0
-16 11 12 9 15 13 3 -4 -1 32 0
-16 11 12 9 15 13 -3 4 1 -32 0
-16 11 12 9 15 13 -3 4 -1 32 0
-16 11 12 9 15 13 -3 -4 1 32 0
-16 11 12 9 15 13 -3 -4 -1 32 0
-16 11 12 9 15 -13 3 4 1 -32 0
-16 11 12 9 15 -13 3 4 -1 32 0
-16 11 12 9 15 -13 3 -4 1 32 0
-16 11 12 9 15 -13 3 -4 -1 32 0
-16 11 12 9 15 -13 -3 4 1 32 0
-16 11 12 9 15 -13 -3 4 -1 32 0
-16 11 12 9 15 -13 -3 -4 1 32 0
-16 11 12 9 15 -13 -3 -4 -1 -32 0
-16 11 12 9 -15 13 3 4 1 -32 0
-16 11 12 9 -15 13 3 4 -1 32 0
-16 11 12 9 -15 13 3 -4 1 32 0
-16 11 12 9 -15 13 3 -4 -1 32 0
-16 11 12 9 -15 13 -3 4 1 32 0
-16 11 12 9 -15 13 -3 4 -1 32 0
-16 11 12 9 -15 13 -3 -4 1 32 0
-16 11 12 9 -15 13 -3 -4 -1 -32 0
-16 11 12 9 -15 -13 3 4 1 32 0
-16 11 12 9 -15 -13 3 4 -1 32 0
-16 11 12 9 -15 -13 3 -4 1 32 0
-16 11 12 9 -15 -13 3 -4 -1 -32 0
-16 11 12 9 -15 -13 -3 4 1 32 0
-16 11 12 9 -15 -13 -3 4 -1 -32 0
-16 11 12 9 -15 -13 -3 -4 1 -32 0
-16 11 12 9 -15 -13 -3 -4 -1 -32 0
-16 11 12 -9 15 13 3 4 1 -32 0
-16 11 12 -9 15 13 3 4 -1 32 0
-16 11 12 -9 15 13 3 -4 1 32 0
-16 11 12 -9 15 13 3 -4 -1 32 0
-16 11 12 -9 15 13 -3 4 1 32 0
-16 11 12 -9 15 13 -3 4 -1 32 0
-16 11 12 -9 15 13 -3 -4 1 32 0
-16 11 12 -9 15 13 -3 -4 -1 -32 0
-16 11 12 -9 15 -13 3 4 1 32 0
-16 11 12 -9 15 -13 3 4 -1 32 0
-16 11 12 -9 15 -13 3 -4 1 32 0
-16 11 12 -9 15 -13 3 -4 -1 -32 0
-16 11 12 -9 15 -13 -3 4 1 32 0
-16 11 12 -9 15 -13 -3 4 -1 -32 0
-16 11 12 -9 15 -13 -3 -4 1 -32 0
-16 11 12 -9 15 -13 -3 -4 -1 -32 0
-16 11 12 -9 -15 13 3 4 1 32 0
-16 11 12 -9 -15 13 3 4 -1 32 0
-16 11 12 -9 -15 13 3 -4 1 32 0
-16 11 12 -9 -15 13 3 -4 -1 -32 0
-16 11 12 -9 -15 13 -3 4 1 32 0
-16 11 12 -9 -15 13 -3 4 -1 -32 0
-16 11 12 -9 -15 13 -3 -4 1 -32 0
-16 11 12 -9 -15 13 -3 -4 -1 -32 0
-16 11 12 -9 -15 -13 3 4 1 32 0
-16 11 12 -9 -15 -13 3 4 -1 -32 0
-16 11 12 -9 -15 -13 3 -4 1 -32 0
-16 11 12 -9 -15 -13 3 -4 -1 -32 0
-16 11 12 -9 -15 -13 -3 4 1 -32 0
-16 11 12 -9 -15 -13 -3 4 -1 -32 0
-16 11 12 -9 -15 -13 -3 -4 1 -32 0
-16 11 12 -9 -15 -13 -3 -4 -1 -32 0
-16 11 -12 9 15 13 3 4 1 -32 0
-16 11 -12 9 15 13 3 4 -1 32 0
-16 11 -12 9 15 13 3 -4 1 32 0
-16 11 -12 9 15 13 3 -4 -1 32 0
-16 11 -12 9 15 13 -3 4 1 32 0
-16 11 -12 9 15 13 -3 4 -1 32 0
-16 11 -12 9 15 13 -3 -4 1 32 0
-16 11 -12 9 15 13 -3 -4 -1 -32 0
-16 11 -12 9 15 -13 3 4 1 32 0
-16 11 -12 9 15 -13 3 4 -1 32 0
-16 11 -12 9 15 -13 3 -4 1 32 0
-16 11 -12 9 15 -13 3 -4 -1 -32 0
-16 11 -12 9 15 -13 -3 4 1 32 0
-16 11 -12 9 15 -13 -3 4 -1 -32 0
-16 11 -12 9 15 -13 -3 -4 1 -32 0
-16 11 -12 9 15 -13 -3 -4 -1 -32 0
-16 11 -12 9 -15 13 3 4 1 32 0
-16 11 -12 9 -15 13 3 4 -1 32 0
-16 11 -12 9 -15 13 3 -4 1 32 0
-16 11 -12 9 -15 13 3 -4 -1 -32 0
-16 11 -12 9 -15 13 -3 4 1 32 0
-16 11 -12 9 -15 13 -3 4 -1 -32 0
-16 11 -12 9 -15 13 -3 -4 1 -32 0
-16 11 -12 9 -15 13 -3 -4 -1 -32 0
-16 11 -12 9 -15 -13 3 4 1 32 0
-16 11 -12 9 -15 -13 3 4 -1 -32 0
-16 11 -12 9 -15 -13 3 -4 1 -32 0
-16 11 -12 9 -15 -13 3 -4 -1 -32 0
-16 11 -12 9 -15 -13 -3 4 1 -32 0
-16 11 -12 9 -15 -13 -3 4 -1 -32 0
-16 11 -12 9 -15 -13 -3 -4 1 -32 0
-16 11 -12 9 -15 -13 -3 -4 -1 -32 0
-16 11 -12 -9 15 13 3 4 1 32 0
-16 11 -12 -9 15 13 3 4 -1 32 0
-16 11 -12 -9 15 13 3 -4 1 32 0
-16 11 -12 -9 15 13 3 -4 -1 -32 0
-16 11 -12 -9 15 13 -3 4 1 32 0
-16 11 -12 -9 15 13 -3 4 -1 -32 0
-16 11 -12 -9 15 13 -3 -4 1 -32 0
-16 11 -12 -9 15 13 -3 -4 -1 -32 0
-16 11 -12 -9 15 -13 3 4 1 32 0
-16 11 -12 -9 15 -13 3 4 -1 -32 0
-16 11 -12 -9 15 -13 3 -4 1 -32 0
-16 11 -12 -9 15 -13 3 -4 -1 -32 0
-16 11 -12 -9 15 -13 -3 4 1 -32 0
-16 11 -12 -9 15 -13 -3 4 -1 -32 0
-16 11 -12 -9 15 -13 -3 -4 1 -32 0
-16 11 -12 -9 15 -13 -3 -4 -1 -32 0
-16 11 -12 -9 -15 13 3 4 1 32 0
-16 11 -12 -9 -15 13 3 4 -1 -32 0
-16 11 -12 -9 -15 13 3 -4 1 -32 0
-16 11 -12 -9 -15 13 3 -4 -1 -32 0
-16 11 -12 -9 -15 13 -3 4 1 -32 0
-16 11 -12 -9 -15 13 -3 4 -1 -32 0
-16 11 -12 -9 -15 13 -3 -4 1 -32 0
-16 11 -12 -9 -15 13 -3 -4 -1 -32 0
-16 11 -12 -9 -15 -13 3 4 1 -32 0
-16 11 -12 -9 -15 -13 3 4 -1 -32 0
-16 11 -12 -9 -15 -13 3 -4 1 -32 0
-16 11 -12 -9 -15 -13 3 -4 -1 -32 0
-16 11 -12 -9 -15 -13 -3 4 1 -32 0
-16 11 -12 -9 -15 -13 -3 4 -1 -32 0
-16 11 -12 -9 -15 -13 -3 -4 1 -32 0
-16 11 -12 -9 -15 -13 -3 -4 -1 -32 0
-16 -11 12 9 15 13 3 4 1 -32 0
-16 -11 12 9 15 13 3 4 -1 32 0
-16 -11 12 9 15 13 3 -4 1 32 0
-16 -11 12 9 15 13 3 -4 -1 32 0
-16 -11 12 9 15 13 -3 4 1 32 0
-16 -11 12 9 15 13 -3 4 -1 32 0
-16 -11 12 9 15 13 -3 -4 1 32 0
-16 -11 12 9 15 13 -3 -4 -1 -32 0
-16 -11 12 9 15 -13 3 4 1 32 0
-16 -11 12 9 15 -13 3 4 -1 32 0
-16 -11 12 9 15 -13 3 -4 1 32 0
-16 -11 12 9 15 -13 3 -4 -1 -32 0
-16 -11 12 9 15 -13 -3 4 1 32 0
-16 -11 12 9 15 -13 -3 4 -1 -32 0
-16 -11 12 9 15 -13 -3 -4 1 -32 0
-16 -11 12 9 15 -13 -3 -4 -1 -32 0
-16 -11 12 9 -15 13 3 4 1 32 0
-16 -11 12 9 -15 13 3 4 -1 32 0
-16 -11 12 9 -15 13 3 -4 1 32 0
-16 -11 12 9 -15 13 3 -4 -1 -32 0
-16 -11 12 9 -15 13 -3 4 1 32 0
-16 -11 12 9 -15 13 -3 4 -1 -32 0
-16 -11 12 9 -15 13 -3 -4 1 -32 0
-16 -11 12 9 -15 13 -3 -4 -1 -32 0
-16 -11 12 9 -15 -13 3 4 1 32 0
-16 -11 12 9 -15 -13 3 4 -1 -32 0
-16 -11 12 9 -15 -13 3 -4 1 -32 0
-16 -11 12 9 -15 -13 3 -4 -1 -32 0
-16 -11 12 9 -15 -13 -3 4 1 -32 0
-16 -11 12 9 -15 -13 -3 4 -1 -32 0
-16 -11 12 9 -15 -13 -3 -4 1 -32 0
-16 -11 12 9 -15 -13 -3 -4 -1 -32 0
-16 -11 12 -9 15 13 3 4 1 32 0
-16 -11 12 -9 15 13 3 4 -1 32 0
-16 -11 12 -9 15 13 3 -4 1 32 0
-16 -11 12 -9 15 13 3 -4 -1 -32 0
-16 -11 12 -9 15 13 -3 4 1 32 0
-16 -11 12 -9 15 13 -3 4 -1 -32 0
-16 -11 12 -9 15 13 -3 -4 1 -32 0
-16 -11 12 -9 15 13 -3 -4 -1 -32 0
-16 -11 12 -9 15 -13 3 4 1 32 0
-16 -11 12 -9 15 -13 3 4 -1 -32 0
-16 -11 12 -9 15 -13 3 -4 1 -32 0
-16 -11 12 -9 15 -13 3 -4 -1 -32 0
-16 -11 12 -9 15 -13 -3 4 1 -32 0
-16 -11 12 -9 15 -13 -3 4 -1 -32 0
-16 -11 12 -9 15 -13 -3 -4 1 -32 0
-16 -11 12 -9 15 -13 -3 -4 -1 -32 0
-16 -11 12 -9 -15 13 3 4 1 32 0
-16 -11 12 -9 -15 13 3 4 -1 -32 0
-16 -11 12 -9 -15 13 3 -4 1 -32 0
-16 -11 12 -9 -15 13 3 -4 -1 -32 0
-16 -11 12 -9 -15 13 -3 4 1 -32 0
-16 -11 12 -9 -15 13 -3 4 -1 -32 0
-16 -11 12 -9 -15 13 -3 -4 1 -32 0
-16 -11 12 -9 -15 13 -3 -4 -1 -32 0
-16 -11 12 -9 -15 -13 3 4 1 -32 0
-16 -11 12 -9 -15 -13 3 4 -1 -32 0
-16 -11 12 -9 -15 -13 3 -4 1 -32 0
-16 -11 12 -9 -15 -13 3 -4 -1 -32 0
-16 -11 12 -9 -15 -13 -3 4 1 -32 0
-16 -11 12 -9 -15 -13 -3 4 -1 -32 0
-16 -11 12 -9 -15 -13 -3 -4 1 -32 0
-16 -11 12 -9 -15 -13 -3 -4 -1 -32 0
-16 -11 -12 9 15 13 3 4 1 32 0
-16 -11 -12 9 15 13 3 4 -1 32 0
-16 -11 -12 9 15 13 3 -4 1 32 0
-16 -11 -12 9 15 13 3 -4 -1 -32 0
-16 -11 -12 9 15 13 -3 4 1 32 0
-16 -11 -12 9 15 13 -3 4 -1 -32 0
-16 -11 -12 9 15 13 -3 -4 1 -32 0
-16 -11 -12 9 15 13 -3 -4 -1 -32 0
-16 -11 -12 9 15 -13 3 4 1 32 0
-16 -11 -12 9 15 -13 3 4 -1 -32 0
-16 -11 -12 9 15 -13 3 -4 1 -32 0
-16 -11 -12 9 15 -13 3 -4 -1 -32 0
-16 -11 -12 9 15 -13 -3 4 1 -32 0
-16 -11 -12 9 15 -13 -3 4 -1 -32 0
-16 -11 -12 9 15 -13 -3 -4 1 -32 0
-16 -11 -12 9 15 -13 -3 -4 -1 -32 0
-16 -11 -12 9 -15 13 3 4 1 32 0
-16 -11 -12 9 -15 13 3 4 -1 -32 0
-16 -11 -12 9 -15 13 3 -4 1 -32 0
-16 -11 -12 9 -15 13 3 -4 -1 -32 0
-16 -11 -12 9 -15 13 -3 4 1 -32 0
-16 -11 -12 9 -15 13 -3 4 -1 -32 0
-16 -11 -12 9 -15 13 -3 -4 1 -32 0
-16 -11 -12 9 -15 13 -3 -4 -1 -32 0
-16 -11 -12 9 -15 -13 3 4 1 -32 0
-16 -11 -12 9 -15 -13 3 4 -1 -32 0
-16 -11 -12 9 -15 -13 3 -4 1 -32 0
-16 -11 -12 9 -15 -13 3 -4 -1 -32 0
-16 -11 -12 9 -15 -13 -3 4 1 -32 0
-16 -11 -12 9 -15 -13 -3 4 -1 -32 0
-16 -11 -12 9 -15 -13 -3 -4 1 -32 0
-16 -11 -12 9 -15 -13 -3 -4 -1 -32 0
-16 -11 -12 -9 15 13 3 4 1 32 0
-16 -11 -12 -9 15 13 3 4 -1 -32 0
-16 -11 -12 -9 15 13 3 -4 1 -32 0
-16 -11 -12 -9 15 13 3 -4 -1 -32 0
-16 -11 -12 -9 15 13 -3 4 1 -32 0
-16 -11 -12 -9 15 13 -3 4 -1 -32 0
-16 -11 -12 -9 15 13 -3 -4 1 -32 0
-16 -11 -12 -9 15 13 -3 -4 -1 -32 0
-16 -11 -12 -9 15 -13 3 4 1 -32 0
-16 -11 -12 -9 15 -13 3 4 -1 -32 0
-16 -11 -12 -9 15 -13 3 -4 1 -32 0
-16 -11 -12 -9 15 -13 3 -4 -1 -32 0
-16 -11 -12 -9 15 -13 -3 4 1 -32 0
-16 -11 -12 -9 15 -13 -3 4 -1 -32 0
-16 -11 -12 -9 15 -13 -3 -4 1 -32 0
-16 -11 -12 -9 15 -13 -3 -4 -1 -32 0
-16 -11 -12 -9 -15 13 3 4 1 -32 0
-16 -11 -12 -9 -15 13 3 4 -1 -32 0
-16 -11 -12 -9 -15 13 3 -4 1 -32 0
-16 -11 -12 -9 -15 13 3 -4 -1 -32 0
-16 -11 -12 -9 -15 13 -3 4 1 -32 0
-16 -11 -12 -9 -15 13 -3 4 -1 -32 0
-16 -11 -12 -9 -15 13 -3 -4 1 -32 0
-16 -11 -12 -9 -15 13 -3 -4 -1 -32 0
-16 -11 -12 -9 -15 -13 3 4 1 -32 0
-16 -11 -12 -9 -15 -13 3 4 -1 -32 0
-16 -11 -12 -9 -15 -13 3 -4 1 -32 0
-16 -11 -12 -9 -15 -13 3 -4 -1 -32 0
-16 -11 -12 -9 -15 -13 -3 4 1 -32 0
-16 -11 -12 -9 -15 -13 -3 4 -1 -32 0
-16 -11 -12 -9 -15 -13 -3 -4 1 -32 0
-16 -11 -12 -9 -15 -13 -3 -4 -1 -32 0
17 32 29 30 20 18 24 21 22 -1 0
17 32 29 30 20 18 24 21 -22 -1 0
17 32 29 30 20 18 24 -21 22 -1 0
17 32 29 30 20 18 24 -21 -22 -1 0
17 32 29 30 20 18 -24 21 22 -1 0
17 32 29 30 20 18 -24 21 -22 -1 0
17 32 29 30 20 18 -24 -21 22 -1 0
17 32 29 30 20 18 -24 -21 -22 1 0
17 32 29 30 20 -18 24 21 22 -1 0
17 32 29 30 20 -18 24 21 -22 -1 0
17 32 29 30 20 -18 24 -21 22 -1 0
17 32 29 30 20 -18 24 -21 -22 1 0
17 32 29 30 20 -18 -24 21 22 -1 0
17 32 29 30 20 -18 -24 21 -22 1 0
17 32 29 30 20 -18 -24 -21 22 1 0
17 32 29 30 20 -18 -24 -21 -22 -1 0
17 32 29 30 -20 18 24 21 22 -1 0
17 32 29 30 -20 18 24 21 -22 -1 0
17 32 29 30 -20 18 24 -21 22 -1 0
17 32 29 30 -20 18 24 -21 -22 1 0
17 32 29 30 -20 18 -24 21 22 -1 0
17 32 29 30 -20 18 -24 21 -22 1 0
17 32 29 30 -20 18 -24 -21 22 1 0
17 32 29 30 -20 18 -24 -21 -22 -1 0
17 32 29 30 -20 -18 24 21 22 -1 0
17 32 29 30 -20 -18 24 21 -22 1 0
17 32 29 30 -20 -18 24 -21 22 1 0
17 32 29 30 -20 -18 24 -21 -22 -1 0
17 32 29 30 -20 -18 -24 21 22 1 0
17 32 29 30 -20 -18 -24 21 -22 -1 0
17 32 29 30 -20 -18 -24 -21 22 -1 0
17 32 29 30 -20 -18 -24 -21 -22 -1 0
17 32 29 -30 20 18 24 21 22 -1 0
17 32 29 -30 20 18 24 21 -22 -1 0
17 32 29 -30 20 18 24 -21 22 -1 0
17 32 29 -30 20 18 24 -21 -22 1 0
17 32 29 -30 20 18 -24 21 22 -1 0
17 32 29 -30 20 18 -24 21 -22 1 0
17 32 29 -30 20 18 -24 -21 22 1 0
17 32 29 -30 20 18 -24 -21 -22 -1 0
17 32 29 -30 20 -18 24 21 22 -1 0
17 32 29 -30 20 -18 24 21 -22 1 0
17 32 29 -30 20 -18 24 -21 22 1 0
17 32 29 -30 20 -18 24 -21 -22 -1 0
17 32 29 -30 20 -18 -24 21 22 1 0
17 32 29 -30 20 -18 -24 21 -22 -1 0
17 32 29 -30 20 -18 -24 -21 22 -1 0
17 32 29 -30 20 -18 -24 -21 -22 -1 0
17 32 29 -30 -20 18 24 21 22 -1 0
17 32 29 -30 -20 18 24 21 -22 1 0
17 32 29 -30 -20 18 24 -21 22 1 0
17 32 29 -30 -20 18 24 -21 -22 -1 0
17 32 29 -30 -20 18 -24 21 22 1 0
17 32 29 -30 -20 18 -24 21 -22 -1 0
17 32 29 -30 -20 18 -24 -21 22 -1 0
17 32 29 -30 -20 18 -24 -21 -22 -1 0
17 32 29 -30 -20 -18 24 21 22 1 0
17 32 29 -30 -20 -18 24 21 -22 -1 0
17 32 29 -30 -20 -18 24 -21 22 -1 0
17 32 29 -30 -20 -18 24 -21 -22 -1 0
17 32 29 -30 -20 -18 -24 21 22 -1 0
17 32 29 -30 -20 -18 -24 21 -22 -1 0
17 32 29 -30 -20 -18 -24 -21 22 -1 0
17 32 29 -30 -20 -18 -24 -21 -22 -1 0
17 32 -29 30 20 18 24 21 22 -1 0
17 32 -29 30 20 18 24 21 -22 -1 0
17 32 -29 30 20 18 24 -21 22 -1 0
17 32 -29 30 20 18 24 -21 -22 1 0
17 32 -29 30 20 18 -24 21 22 -1 0
17 32 -29 30 20 18 -24 21 -22 1 0
17 32 -29 30 20 18 -24 -21 22 1 0
17 32 -29 30 20 18 -24 -21 -22 -1 0
17 32 -29 30 20 -18 24 21 22 -1 0
17 32 -29 30 20 -18 24 21 -22 1 0
17 32 -29 30 20 -18 24 -21 22 1 0
17 32 -29 30 20 -18 24 -21 -22 -1 0
17 32 -29 30 20 -18 -24 21 22 1 0
17 32 -29 30 20 -18 -24 21 -22 -1 0
17 32 -29 30 20 -18 -24 -21 22 -1 0
17 32 -29 30 20 -18 -24 -21 -22 -1 0
17 32 -29 30 -20 18 24 21 22 -1 0
17 32 -29 30 -20 18 24 21 -22 1 0
17 32 -29 30 -20 18 24 -21 22 1 0
17 32 -29 30 -20 18 24 -21 -22 -1 0
17 32 -29 30 -20 18 -24 21 22 1 0
17 32 -29 30 -20 18 -24 21 -22 -1 0
17 32 -29 30 -20 18 -24 -21 22 -1 0
17 32 -29 30 -20 18 -24 -21 -22 -1 0
17 32 -29 30 -20 -18 24 21 22 1 0
17 32 -29 30 -20 -18 24 21 -22 -1 0
17 32 -29 30 -20 -18 24 -21 22 -1 0
17 32 -29 30 -20 -18 24 -21 -22 -1 0
17 32 -29 30 -20 -18 -24 21 22 -1 0
17 32 -29 30 -20 -18 -24 21 -22 -1 0
17 32 -29 30 -20 -18 -24 -21 22 -1 0
17 32 -29 30 -20 -18 -24 -21 -22 -1 0
17 32 -29 -30 20 18 24 21 22 -1 0
17 32 -29 -30 20 18 24 21 -22 1 0
17 32 -29 -30 20 18 24 -21 22 1 0
17 32 -29 -30 20 18 24 -21 -22 -1 0
17 32 -29 -30 20 18 -24 21 22 1 0
17 32 -29 -30 20 18 -24 21 -22 -1 0
17 32 -29 -30 20 18 -24 -21 22 -1 0
17 32 -29 -30 20 18 -24 -21 -22 -1 0
17 32 -29 -30 20 -18 24 21 22 1 0
17 32 -29 -30 20 -18 24 21 -22 -1 0
17 32 -29 -30 20 -18 24 -21 22 -1 0
17 32 -29 -30 20 -18 24 -21 -22 -1 0
17 32 -29 -30 20 -18 -24 21 22 -1 0
17 32 -29 -30 20 -18 -24 21 -22 -1 0
17 32 -29 -30 20 -18 -24 -21 22 -1 0
17 32 -29 -30 20 -18 -24 -21 -22 -1 0
17 32 -29 -30 -20 18 24 21 22 1 0
17 32 -29 -30 -20 18 24 21 -22 -1 0
17 32 -29 -30 -20 18 24 -21 22 -1 0
17 32 -29 -30 -20 18 24 -21 -22 -1 0
17 32 -29 -30 -20 18 -24 21 22 -1 0
17 32 -29 -30 -20 18 -24 21 -22 -1 0
17 32 -29 -30 -20 18 -24 -21 22 -1 0
17 32 -29 -30 -20 18 -24 -21 -22 -1 0
17 32 -29 -30 -20 -18 24 21 22 -1 0
17 32 -29 -30 -20 -18 24 21 -22 -1 0
17 32 -29 -30 -20 -18 24 -21 22 -1 0
17 32 -29 -30 -20 -18 24 -21 -22 -1 0
17 32 -29 -30 -20 -18 -24 21 22 -1 0
17 32 -29 -30 -20 -18 -24 21 -22 -1 0
17 32 -29 -30 -20 -18 -24 -21 22 -1 0
17 32 -29 -30 -20 -18 -24 -21 -22 -1 0
17 -32 29 30 20 18 24 21 22 -1 0
17 -32 29 30 20 18 24 21 -22 -1 0
17 -32 29 30 20 18 24 -21 22 -1 0
17 -32 29 30 20 18 24 -21 -22 1 0
17 -32 29 30 20 18 -24 21 22 -1 0
17 -32 29 30 20 18 -24 21 -22 1 0
17 -32 29 30 20 18 -24 -21 22 1 0
17 -32 29 30 20 18 -24 -21 -22 -1 0
17 -32 29 30 20 -18 24 21 22 -1 0
17 -32 29 30 20 -18 24 21 -22 1 0
17 -32 29 30 20 -18 24 -21 22 1 0
17 -32 29 30 20 -18 24 -21 -22 -1 0
17 -32 29 30 20 -18 -24 21 22 1 0
17 -32 29 30 20 -18 -24 21 -22 -1 0
17 -32 29 30 20 -18 -24 -21 22 -1 0
17 -32 29 30 20 -18 -24 -21 -22 -1 0
17 -32 29 30 -20 18 24 21 22 -1 0
17 -32 29 30 -20 18 24 21 -22 1 0
17 -32 29 30 -20 18 24 -21 22 1 0
17 -32 29 30 -20 18 24 -21 -22 -1 0
17 -32 29 30 -20 18 -24 21 22 1 0
17 -32 29 30 -20 18 -24 21 -22 -1 0
17 -32 29 30 -20 18 -24 -21 22 -1 0
17 -32 29 30 -20 18 -24 -21 -22 -1 0
17 -32 29 30 -20 -18 24 21 22 1 0
17 -32 29 30 -20 -18 24 21 -22 -1 0
17 -32 29 30 -20 -18 24 -21 22 -1 0
17 -32 29 30 -20 -18 24 -21 -22 -1 0
17 -32 29 30 -20 -18 -24 21 22 -1 0
17 -32 29 30 -20 -18 -24 21 -22 -1 0
17 -32 29 30 -20 -18 -24 -21 22 -1 0
17 -32 29 30 -20 -18 -24 -21 -22 -1 0
17 -32 29 -30 20 18 24 21 22 -1 0
17 -32 29 -30 20 18 24 21 -22 1 0
17 -32 29 -30 20 18 24 -21 22 1 0
17 -32 29 -30 20 18 24 -21 -22 -1 0
17 -32 29 -30 20 18 -24 21 22 1 0
17 -32 29 -30 20 18 -24 21 -22 -1 0
17 -32 29 -30 20 18 -24 -21 22 -1 0
17 -32 29 -30 20 18 -24 -21 -22 -1 0
17 -32 29 -30 20 -18 24 21 22 1 0
17 -32 29 -30 20 -18 24 21 -22 -1 0
17 -32 29 -30 20 -18 24 -21 22 -1 0
17 -32 29 -30 20 -18 24 -21 -22 -1 0
17 -32 29 -30 20 -18 -24 21 22 -1 0
17 -32 29 -30 20 -18 -24 21 -22 -1 0
17 -32 29 -30 20 -18 -24 -21 22 -1 0
17 -32 29 -30 20 -18 -24 -21 -22 -1 0
17 -32 29 -30 -20 18 24 21 22 1 0
17 -32 29 -30 -20 18 24 21 -22 -1 0
17 -32 29 -30 -20 18 24 -21 22 -1 0
17 -32 29 -30 -20 18 24 -21 -22 -1 0
17 -32 29 -30 -20 18 -24 21 22 -1 0
17 -32 29 -30 -20 18 -24 21 -22 -1 0
17 -32 29 -30 -20 18 -24 -21 22 -1 0
17 -32 29 -30 -20 18 -24 -21 -22 -1 0
17 -32 29 -30 -20 -18 24 21 22 -1 0
17 -32 29 -30 -20 -18 24 21 -22 -1 0
17 -32 29 -30 -20 -18 24 -21 22 -1 0
17 -32 29 -30 -20 -18 24 -21 -22 -1 0
17 -32 29 -30 -20 -18 -24 21 22 -1 0
17 -32 29 -30 -20 -18 -24 21 -22 -1 0
17 -32 29 -30 -20 -18 -24 -21 22 -1 0
17 -32 29 -30 -20 -18 -24 -21 -22 -1 0
17 -32 -29 30 20 18 24 21 22 -1 0
17 -32 -29 30 20 18 24 21 -22 1 0
17 -32 -29 30 20 18 24 -21 22 1 0
17 -32 -29 30 20 18 24 -21 -22 -1 0
17 -32 -29 30 20 18 -24 21 22 1 0
17 -32 -29 30 20 18 -24 21 -22 -1 0
17 -32 -29 30 20 18 -24 -21 22 -1 0
17 -32 -29 30 20 18 -24 -21 -22 -1 0
17 -32 -29 30 20 -18 24 21 22 1 0
17 -32 -29 30 20 -18 24 21 -22 -1 0
17 -32 -29 30 20 -18 24 -21 22 -1 0
17 -32 -29 30 20 -18 24 -21 -22 -1 0
17 -32 -29 30 20 -18 -24 21 22 -1 0
17 -32 -29 30 20 -18 -24 21 -22 -1 0
17 -32 -29 30 20 -18 -24 -21 22 -1 0
17 -32 -29 30 20 -18 -24 -21 -22 -1 0
17 -32 -29 30 -20 18 24 21 22 1 0
17 -32 -29 30 -20 18 24 21 -22 -1 0
17 -32 -29 30 -20 18 24 -21 22 -1 0
17 -32 -29 30 -20 18 24 -21 -22 -1 0
17 -32 -29 30 -20 18 -24 21 22 -1 0
17 -32 -29 30 -20 18 -24 21 -22 -1 0
17 -32 -29 30 -20 18 -24 -21 22 -1 0
17 -32 -29 30 -20 18 -24 -21 -22 -1 0
17 -32 -29 30 -20 -18 24 21 22 -1 0
17 -32 -29 30 -20 -18 24 21 -22 -1 0
17 -32 -29 30 -20 -18 24 -21 22 -1 0
17 -32 -29 30 -20 -18 24 -21 -22 -1 0
17 -32 -29 30 -20 -18 -24 21 22 -1 0
17 -32 -29 30 -20 -18 -24 21 -22 -1 0
17 -32 -29 30 -20 -18 -24 -21 22 -1 0
17 -32 -29 30 -20 -18 -24 -21 -22 -1 0
17 -32 -29 -30 20 18 24 21 22 1 0
17 -32 -29 -30 20 18 24 21 -22 -1 0
17 -32 -29 -30 20 18 24 -21 22 -1 0
17 -32 -29 -30 20 18 24 -21 -22 -1 0
17 -32 -29 -30 20 18 -24 21 22 -1 0
17 -32 -29 -30 20 18 -24 21 -22 -1 0
17 -32 -29 -30 20 18 -24 -21 22 -1 0
17 -32 -29 -30 20 18 -24 -21 -22 -1 0
17 -32 -29 -30 20 -18 24 21 22 -1 0
17 -32 -29 -30 20 -18 24 21 -22 -1 0
17 -32 -29 -30 20 -18 24 -21 22 -1 0
17 -32 -29 -30 20 -18 24 -21 -22 -1 0
17 -32 -29 -30 20 -18 -24 21 22 -1 0
17 -32 -29 -30 20 -18 -24 21 -22 -1 0
17 -32 -29 -30 20 -18 -24 -21 22 -1 0
17 -32 -29 -30 20 -18 -24 -21 -22 -1 0
17 -32 -29 -30 -20 18 24 21 22 -1 0
17 -32 -29 -30 -20 18 24 21 -22 -1 0
17 -32 -29 -30 -20 18 24 -21 22 -1 0
17 -32 -29 -30 -20 18 24 -21 -22 -1 0
17 -32 -29 -30 -20 18 -24 21 22 -1 0
17 -32 -29 -30 -20 18 -24 21 -22 -1 0
17 -32 -29 -30 -20 18 -24 -21 22 -1 0
17 -32 -29 -30 -20 18 -24 -21 -22 -1 0
17 -32 -29 -30 -20 -18 24 21 22 -1 0
17 -32 -29 -30 -20 -18 24 21 -22 -1 0
17 -32 -29 -30 -20 -18 24 -21 22 -1 0
17 -32 -29 -30 -20 -18 24 -21 -22 -1 0
17 -32 -29 -30 -20 -18 -24 21 22 -1 0
17 -32 -29 -30 -20 -18 -24 21 -22 -1 0
17 -32 -29 -30 -20 -18 -24 -21 22 -1 0
17 -32 -29 -30 -20 -18 -24 -21 -22 -1 0
-17 32 29 30 20 18 24 21 22 -1 0
-17 32 29 30 20 18 24 21 -22 -1 0
-17 32 29 30 20 18 24 -21 22 -1 0
-17 32 29 30 20 18 24 -21 -22 1 0
-17 32 29 30 20 18 -24 21 22 -1 0
-17 32 29 30 20 18 -24 21 -22 1 0
-17 32 29 30 20 18 -24 -21 22 1 0
-17 32 29 30 20 18 -24 -21 -22 1 0
-17 32 29 30 20 -18 24 21 22 -1 0
-17 32 29 30 20 -18 24 21 -22 1 0
-17 32 29 30 20 -18 24 -21 22 1 0
-17 32 29 30 20 -18 24 -21 -22 1 0
-17 32 29 30 20 -18 -24 21 22 1 0
-17 32 29 30 20 -18 -24 21 -22 1 0
-17 32 29 30 20 -18 -24 -21 22 1 0
-17 32 29 30 20 -18 -24 -21 -22 -1 0
-17 32 29 30 -20 18 24 21 22 -1 0
-17 32 29 30 -20 18 24 21 -22 1 0
-17 32 29 30 -20 18 24 -21 22 1 0
-17 32 29 30 -20 18 24 -21 -22 1 0
-17 32 29 30 -20 18 -24 21 22 1 0
-17 32 29 30 -20 18 -24 21 -22 1 0
-17 32 29 30 -20 18 -24 -21 22 1 0
-17 32 29 30 -20 18 -24 -21 -22 -1 0
-17 32 29 30 -20 -18 24 21 22 1 0
-17 32 29 30 -20 -18 24 21 -22 1 0
-17 32 29 30 -20 -18 24 -21 22 1 0
-17 32 29 30 -20 -18 24 -21 -22 -1 0
-17 32 29 30 -20 -18 -24 21 22 1 0
-17 32 29 30 -20 -18 -24 21 -22 -1 0
-17 32 29 30 -20 -18 -24 -21 22 -1 0
-17 32 29 30 -20 -18 -24 -21 -22 -1 0
-17 32 29 -30 20 18 24 21 22 -1 0
-17 32 29 -30 20 18 24 21 -22 1 0
-17 32 29 -30 20 18 24 -21 22 1 0
-17 32 29 -30 20 18 24 -21 -22 1 0
-17 32 29 -30 20 18 -24 21 22 1 0
-17 32 29 -30 20 18 -24 21 -22 1 0
-17 32 29 -30 20 18 -24 -21 22 1 0
-17 32 29 -30 20 18 -24 -21 -22 -1 0
-17 32 29 -30 20 -18 24 21 22 1 0
-17 32 29 -30 20 -18 24 21 -22 1 0
-17 32 29 -30 20 -18 24 -21 22 1 0
-17 32 29 -30 20 -18 24 -21 -22 -1 0
-17 32 29 -30 20 -18 -24 21 22 1 0
-17 32 29 -30 20 -18 -24 21 -22 -1 0
-17 32 29 -30 20 -18 -24 -21 22 -1 0
-17 32 29 -30 20 -18 -24 -21 -22 -1 0
-17 32 29 -30 -20 18 24 21 22 1 0
-17 32 29 -30 -20 18 24 21 -22 1 0
-17 32 29 -30 -20 18 24 -21 22 1 0
-17 32 29 -30 -20 18 24 -21 -22 -1 0
-17 32 29 -30 -20 18 -24 21 22 1 0
-17 32 29 -30 -20 18 -24 21 -22 -1 0
-17 32 29 -30 -20 18 -24 -21 22 -1 0
-17 32 29 -30 -20 18 -24 -21 -22 -1 0
-17 32 29 -30 -20 -18 24 21 22 1 0
-17 32 29 -30 -20 -18 24 21 -22 -1 0
-17 32 29 -30 -20 -18 24 -21 22 -1 0
-17 32 29 -30 -20 -18 24 -21 -22 -1 0
-17 32 29 -30 -20 -18 -24 21 22 -1 0
-17 32 29 -30 -20 -18 -24 21 -22 -1 0
-17 32 29 -30 -20 -18 -24 -21 22 -1 0
-17 32 29 -30 -20 -18 -24 -21 -22 -1 0
-17 32 -29 30 20 18 24 21 22 -1 0
-17 32 -29 30 20 18 24 21 -22 1 0
-17 32 -29 30 20 18 24 -21 22 1 0
-17 32 -29 30 20 18 24 -21 -22 1 0
-17 32 -29 30 20 18 -24 21 22 1 0
-17 32 -29 30 20 18 -24 21 -22 1 0
-17 32 -29 30 20 18 -24 -21 22 1 0
-17 32 -29 30 20 18 -24 -21 -22 -1 0
-17 32 -29 30 20 -18 24 21 22 1 0
-17 32 -29 30 20 -18 24 21 -22 1 0
-17 32 -29 30 20 -18 24 -21 22 1 0
-17 32 -29 30 20 -18 24 -21 -22 -1 0
-17 32 -29 30 20 -18 -24 21 22 1 0
-17 32 -29 30 20 -18 -24 21 -22 -1 0
-17 32 -29 30 20 -18 -24 -21 22 -1 0
-17 32 -29 30 20 -18 -24 -21 -22 -1 0
-17 32 -29 30 -20 18 24 21 22 1 0
-17 32 -29 30 -20 18 24 21 -22 1 0
-17 32 -29 30 -20 18 24 -21 22 1 0
-17 32 -29 30 -20 18 24 -21 -22 -1 0
-17 32 -29 30 -20 18 -24 21 22 1 0
-17 32 -29 30 -20 18 -24 21 -22 -1 0
-17 32 -29 30 -20 18 -24 -21 22 -1 0
-17 32 -29 30 -20 18 -24 -21 -22 -1 0
-17 32 -29 30 -20 -18 24 21 22 1 0
-17 32 -29 30 -20 -18 24 21 -22 -1 0
-17 32 -29 30 -20 -18 24 -21 22 -1 0
-17 32 -29 30 -20 -18 24 -21 -22 -1 0
-17 32 -29 30 -20 -18 -24 21 22 -1 0
-17 32 -29 30 -20 -18 -24 21 -22 -1 0
-17 32 -29 30 -20 -18 -24 -21 22 -1 0
-17 32 -29 30 -20 -18 -24 -21 -22 -1 0
-17 32 -29 -30 20 18 24 21 22 1 0
-17 32 -29 -30 20 18 24 21 -22 1 0
-17 32 -29 -30 20 18 24 -21 22 1 0
-17 32 -29 -30 20 18 24 -21 -22 -1 0
-17 32 -29 -30 20 18 -24 21 22 1 0
-17 32 -29 -30 20 18 -24 21 -22 -1 0
-17 32 -29 -30 20 18 -24 -21 22 -1 0
-17 32 -29 -30 20 18 -24 -21 -22 -1 0
-17 32 -29 -30 20 -18 24 21 22 1 0
-17 32 -29 -30 20 -18 24 21 -22 -1 0
-17 32 -29 -30 20 -18 24 -21 22 -1 0
-17 32 -29 -30 20 -18 24 -21 -22 -1 0
-17 32 -29 -30 20 -18 -24 21 22 -1 0
-17 32 -29 -30 20 -18 -24 21 -22 -1 0
-17 32 -29 -30 20 -18 -24 -21 22 -1 0
-17 32 -29 -30 20 -18 -24 -21 -22 -1 0
-17 32 -29 -30 -20 18 24 21 22 1 0
-17 32 -29 -30 -20 18 24 21 -22 -1 0
-17 32 -29 -30 -20 18 24 -21 22 -1 0
-17 32 -29 -30 -20 18 24 -21 -22 -1 0
-17 32 -29 -30 -20 18 -24 21 22 -1 0
-17 32 -29 -30 -20 18 -24 21 -22 -1 0
-17 32 -29 -30 -20 18 -24 -21 22 -1 0
-17 32 -29 -30 -20 18 -24 -21 -22 -1 0
-17 32 -29 -30 -20 -18 24 21 22 -1 0
-17 32 -29 -30 -20 -18 24 21 -22 -1 0
-17 32 -29 -30 -20 -18 24 -21 22 -1 0
-17 32 -29 -30 -20 -18 24 -21 -22 -1 0
-17 32 -29 -30 -20 -18 -24 21 22 -1 0
-17 32 -29 -30 -20 -18 -24 21 -22 -1 0
-17 32 -29 -30 -20 -18 -24 -21 22 -1 0
-17 32 -29 -30 -20 -18 -24 -21 -22 -1 0
-17 -32 29 30 20 18 24 21 22 -1 0
-17 -32 29 30 20 18 24 21 -22 1 0
-17 -32 29 30 20 18 24 -21 22 1 0
-17 -32 29 30 20 18 24 -21 -22 1 0
-17 -32 29 30 20 18 -24 21 22 1 0
-17 -32 29 30 20 18 -24 21 -22 1 0
-17 -32 29 30 20 18 -24 -21 22 1 0
-17 -32 29 30 20 18 -24 -21 -22 -1 0
-17 -32 29 30 20 -18 24 21 22 1 0
-17 -32 29 30 20 -18 24 21 -22 1 0
-17 -32 29 30 20 -18 24 -21 22 1 0
-17 -32 29 30 20 -18 24 -21 -22 -1 0
-17 -32 29 30 20 -18 -24 21 22 1 0
-17 -32 29 30 20 -18 -24 21 -22 -1 0
-17 -32 29 30 20 -18 -24 -21 22 -1 0
-17 -32 29 30 20 -18 -24 -21 -22 -1 0
-17 -32 29 30 -20 18 24 21 22 1 0
-17 -32 29 30 -20 18 24 21 -22 1 0
-17 -32 29 30 -20 18 24 -21 22 1 0
-17 -32 29 30 -20 18 24 -21 -22 -1 0
-17 -32 29 30 -20 18 -24 21 22 1 0
-17 -32 29 30 -20 18 -24 21 -22 -1 0
-17 -32 29 30 -20 18 -24 -21 22 -1 0
-17 -32 29 30 -20 18 -24 -21 -22 -1 0
-17 -32 29 30 -20 -18 24 21 22 1 0
-17 -32 29 30 -20 -18 24 21 -22 -1 0
-17 -32 29 30 -20 -18 24 -21 22 -1 0
-17 -32 29 30 -20 -18 24 -21 -22 -1 0
-17 -32 29 30 -20 -18 -24 21 22 -1 0
-17 -32 29 30 -20 -18 -24 21 -22 -1 0
-17 -32 29 30 -20 -18 -24 -21 22 -1 0
-17 -32 29 30 -20 -18 -24 -21 -22 -1 0
-17 -32 29 -30 20 18 24 21 22 1 0
-17 -32 29 -30 20 18 24 21 -22 1 0
-17 -32 29 -30 20 18 24 -21 22 1 0
-17 -32 29 -30 20 18 24 -21 -22 -1 0
-17 -32 29 -30 20 18 -24 21 22 1 0
-17 -32 29 -30 20 18 -24 21 -22 -1 0
-17 -32 29 -30 20 18 -24 -21 22 -1 0
-17 -32 29 -30 20 18 -24 -21 -22 -1 0
-17 -32 29 -30 20 -18 24 21 22 1 0
-17 -32 29 -30 20 -18 24 21 -22 -1 0
-17 -32 29 -30 20 -18 24 -21 22 -1 0
-17 -32 29 -30 20 -18 24 -21 -22 -1 0
-17 -32 29 -30 20 -18 -24 21 22 -1 0
-17 -32 29 -30 20 -18 -24 21 -22 -1 0
-17 -32 29 -30 20 -18 -24 -21 22 -1 0
-17 -32 29 -30 20 -18 -24 -21 -22 -1 0
-17 -32 29 -30 -20 18 24 21 22 1 0
-17 -32 29 -30 -20 18 24 21 -22 -1 0
-17 -32 29 -30 -20 18 24 -21 22 -1 0
-17 -32 29 -30 -20 18 24 -21 -22 -1 0
-17 -32 29 -30 -20 18 -24 21 22 -1 0
-17 -32 29 -30 -20 18 -24 21 -22 -1 0
-17 -32 29 -30 -20 18 -24 -21 22 -1 0
-17 -32 29 -30 -20 18 -24 -21 -22 -1 0
-17 -32 29 -30 -20 -18 24 21 22 -1 0
-17 -32 29 -30 -20 -18 24 21 -22 -1 0
-17 -32 29 -30 -20 -18 24 -21 22 -1 0
-17 -32 29 -30 -20 -18 24 -21 -22 -1 0
-17 -32 29 -30 -20 -18 -24 21 22 -1 0
-17 -32 29 -30 -20 -18 -24 21 -22 -1 0
-17 -32 29 -30 -20 -18 -24 -21 22 -1 0
-17 -32 29 -30 -20 -18 -24 -21 -22 -1 0
-17 -32 -29 30 20 18 24 21 22 1 0
-17 -32 -29 30 20 18 24 21 -22 1 0
-17 -32 -29 30 20 18 24 -21 22 1 0
-17 -32 -29 30 20 18 24 -21 -22 -1 0
-17 -32 -29 30 20 18 -24 21 22 1 0
-17 -32 -29 30 20 18 -24 21 -22 -1 0
-17 -32 -29 30 20 18 -24 -21 22 -1 0
-17 -32 -29 30 20 18 -24 -21 -22 -1 0
-17 -32 -29 30 20 -18 24 21 22 1 0
-17 -32 -29 30 20 -18 24 21 -22 -1 0
-17 -32 -29 30 20 -18 24 -21 22 -1 0
-17 -32 -29 30 20 -18 24 -21 -22 -1 0
-17 -32 -29 30 20 -18 -24 21 22 -1 0
-17 -32 -29 30 20 -18 -24 21 -22 -1 0
-17 -32 -29 30 20 -18 -24 -21 22 -1 0
-17 -32 -29 30 20 -18 -24 -21 -22 -1 0
-17 -32 -29 30 -20 18 24 21 22 1 0
-17 -32 -29 30 -20 18 24 21 -22 -1 0
-17 -32 -29 30 -20 18 24 -21 22 -1 0
-17 -32 -29 30 -20 18 24 -21 -22 -1 0
-17 -32 -29 30 -20 18 -24 21 22 -1 0
-17 -32 -29 30 -20 18 -24 21 -22 -1 0
-17 -32 -29 30 -20 18 -24 -21 22 -1 0
-17 -32 -29 30 -20 18 -24 -21 -22 -1 0
-17 -32 -29 30 -20 -18 24 21 22 -1 0
-17 -32 -29 30 -20 -18 24 21 -22 -1 0
-17 -32 -29 30 -20 -18 24 -21 22 -1 0
-17 -32 -29 30 -20 -18 24 -21 -22 -1 0
-17 -32 -29 30 -20 -18 -24 21 22 -1 0
-17 -32 -29 30 -20 -18 -24 21 -22 -1 0
-17 -32 -29 30 -20 -18 -24 -21 22 -1 0
-17 -32 -29 30 -20 -18 -24 -21 -22 -1 0
-17 -32 -29 -30 20 18 24 21 22 1 0
-17 -32 -29 -30 20 18 24 21 -22 -1 0
-17 -32 -29 -30 20 18 24 -21 22 -1 0
-17 -32 -29 -30 20 18 24 -21 -22 -1 0
-17 -32 -29 -30 20 18 -24 21 22 -1 0
-17 -32 -29 -30 20 18 -24 21 -22 -1 0
-17 -32 -29 -30 20 18 -24 -21 22 -1 0
-17 -32 -29 -30 20 18 -24 -21 -22 -1 0
-17 -32 -29 -30 20 -18 24 21 22 -1 0
-17 -32 -29 -30 20 -18 24 21 -22 -1 0
-17 -32 -29 -30 20 -18 24 -21 22 -1 0
-17 -32 -29 -30 20 -18 24 -21 -22 -1 0
-17 -32 -29 -30 20 -18 -24 21 22 -1 0
-17 -32 -29 -30 20 -18 -24 21 -22 -1 0
-17 -32 -29 -30 20 -18 -24 -21 22 -1 0
-17 -32 -29 -30 20 -18 -24 -21 -22 -1 0
-17 -32 -29 -30 -20 18 24 21 22 -1 0
-17 -32 -29 -30 -20 18 24 21 -22 -1 0
-17 -32 -29 -30 -20 18 24 -21 22 -1 0
-17 -32 -29 -30 -20 18 24 -21 -22 -1 0
-17 -32 -29 -30 -20 18 -24 21 22 -1 0
-17 -32 -29 -30 -20 18 -24 21 -22 -1 0
-17 -32 -29 -30 -20 18 -24 -21 22 -1 0
-17 -32 -29 -30 -20 18 -24 -21 -22 -1 0
-17 -32 -29 -30 -20 -18 24 21 22 -1 0
-17 -32 -29 -30 -20 -18 24 21 -22 -1 0
-17 -32 -29 -30 -20 -18 24 -21 22 -1 0
-17 -32 -29 -30 -20 -18 24 -21 -22 -1 0
-17 -32 -29 -30 -20 -18 -24 21 22 -1 0
-17 -32 -29 -30 -20 -18 -24 21 -22 -1 0
-17 -32 -29 -30 -20 -18 -24 -21 22 -1 0
-17 -32 -29 -30 -20 -18 -24 -21 -22 -1 0
18 29 30 31 17 19 21 22 23 -2 0
18 29 30 31 17 19 21 22 -23 -2 0
18 29 30 31 17 19 21 -22 23 -2 0
18 29 30 31 17 19 21 -22 -23 -2 0
18 29 30 31 17 19 -21 22 23 -2 0
18 29 30 31 17 19 -21 22 -23 -2 0
18 29 30 31 17 19 -21 -22 23 -2 0
18 29 30 31 17 19 -21 -22 -23 2 0
18 29 30 31 17 -19 21 22 23 -2 0
18 29 30 31 17 -19 21 22 -23 -2 0
18 29 30 31 17 -19 21 -22 23 -2 0
18 29 30 31 17 -19 21 -22 -23 2 0
18 29 30 31 17 -19 -21 22 23 -2 0
18 29 30 31 17 -19 -21 22 -23 2 0
18 29 30 31 17 -19 -21 -22 23 2 0
18 29 30 31 17 -19 -21 -22 -23 -2 0
18 29 30 31 -17 19 21 22 23 -2 0
18 29 30 31 -17 19 21 22 -23 -2 0
18 29 30 31 -17 19 21 -22 23 -2 0
18 29 30 31 -17 19 21 -22 -23 2 0
18 29 30 31 -17 19 -21 22 23 -2 0
18 29 30 31 -17 19 -21 22 -23 2 0
18 29 30 31 -17 19 -21 -22 23 2 0
18 29 30 31 -17 19 -21 -22 -23 -2 0
18 29 30 31 -17 -19 21 22 23 -2 0
18 29 30 31 -17 -19 21 22 -23 2 0
18 29 30 31 -17 -19 21 -22 23 2 0
18 29 30 31 -17 -19 21 -22 -23 -2 0
18 29 30 31 -17 -19 -21 22 23 2 0
18 29 30 31 -17 -19 -21 22 -23 -2 0
18 29 30 31 -17 -19 -21 -22 23 -2 0
18 29 30 31 -17 -19 -21 -22 -23 -2 0
18 29 30 -31 17 19 21 22 23 -2 0
18 29 30 -31 17 19 21 22 -23 -2 0
18 29 30 -31 17 19 21 -22 23 -2 0
18 29 30 -31 17 19 21 -22 -23 2 0
18 29 30 -31 17 19 -21 22 23 -2 0
18 29 30 -31 17 19 -21 22 -23 2 0
18 29 30 -31 17 19 -21 -22 23 2 0
18 29 30 -31 17 19 -21 -22 -23 -2 0
18 29 30 -31 17 -19 21 22 23 -2 0
18 29 30 -31 17 -19 21 22 -23 2 0
18 29 30 -31 17 -19 21 -22 23 2 0
18 29 30 -31 17 -19 21 -22 -23 -2 0
18 29 30 -31 17 -19 -21 22 23 2 0
18 29 30 -31 17 -19 -21 22 -23 -2 0
18 29 30 -31 17 -19 -21 -22 23 -2 0
18 29 30 -31 17 -19 -21 -22 -23 -2 0
18 29 30 -31 -17 19 21 22 23 -2 0
18 29 30 -31 -17 19 21 22 -23 2 0
18 29 30 -31 -17 19 21 -22 23 2 0
18 29 30 -31 -17 19 21 -22 -23 -2 0
18 29 30 -31 -17 19 -21 22 23 2 0
18 29 30 -31 -17 19 -21 22 -23 -2 0
18 29 30 -31 -17 19 -21 -22 23 -2 0
18 29 30 -31 -17 19 -21 -22 -23 -2 0
18 29 30 -31 -17 -19 21 22 23 2 0
18 29 30 -31 -17 -19 21 22 -23 -2 0
18 29 30 -31 -17 -19 21 -22 23 -2 0
18 29 30 -31 -17 -19 21 -22 -23 -2 0
18 29 30 -31 -17 -19 -21 22 23 -2 0
18 29 30 -31 -17 -19 -21 22 -23 -2 0
18 29 30 -31 -17 -19 -21 -22 23 -2 0
18 29 30 -31 -17 -19 -21 -22 -23 -2 0
18 29 -30 31 17 19 21 22 23 -2 0
18 29 -30 31 17 19 21 22 -23 -2 0
18 29 -30 31 17 19 21 -22 23 -2 0
18 29 -30 31 17 19 21 -22 -23 2 0
18 29 -30 31 17 19 -21 22 23 -2 0
18 29 -30 31 17 19 -21 22 -23 2 0
18 29 -30 31 17 19 -21 -22 23 2 0
18 29 -30 31 17 19 -21 -22 -23 -2 0
18 29 -30 31 17 -19 21 22 23 -2 0
18 29 -30 31 17 -19 21 22 -23 2 0
18 29 -30 31 17 -19 21 -22 23 2 0
18 29 -30 31 17 -19 21 -22 -23 -2 0
18 29 -30 31 17 -19 -21 22 23 2 0
18 29 -30 31 17 -19 -21 22 -23 -2 0
18 29 -30 31 17 -19 -21 -22 23 -2 0
18 29 -30 31 17 -19 -21 -22 -23 -2 0
18 29 -30 31 -17 19 21 22 23 -2 0
18 29 -30 31 -17 19 21 22 -23 2 0
18 29 -30 31 -17 19 21 -22 23 2 0
18 29 -30 31 -17 19 21 -22 -23 -2 0
18 29 -30 31 -17 19 -21 22 23 2 0
18 29 -30 31 -17 19 -21 22 -23 -2 0
18 29 -30 31 -17 19 -21 -22 23 -2 0
18 29 -30 31 -17 19 -21 -22 -23 -2 0
18 29 -30 31 -17 -19 21 22 23 2 0
18 29 -30 31 -17 -19 21 22 -23 -2 0
18 29 -30 31 -17 -19 21 -22 23 -2 0
18 29 -30 31 -17 -19 21 -22 -23 -2 0
18 29 -30 31 -17 -19 -21 22 23 -2 0
18 29 -30 31 -17 -19 -21 22 -23 -2 0
18 29 -30 31 -17 -19 -21 -22 23 -2 0
18 29 -30 31 -17 -19 -21 -22 -23 -2 0
18 29 -30 -31 17 19 21 22 23 -2 0
18 29 -30 -31 17 19 21 22 -23 2 0
18 29 -30 -31 17 19 21 -22 23 2 0
18 29 -30 -31 17 19 21 -22 -23 -2 0
18 29 -30 -31 17 19 -21 22 23 2 0
18 29 -30 -31 17 19 -21 22 -23 -2 0
18 29 -30 -31 17 19 -21 -22 23 -2 0
18 29 -30 -31 17 19 -21 -22 -23 -2 0
18 29 -30 -31 17 -19 21 22 23 2 0
18 29 -30 -31 17 -19 21 22 -23 -2 0
18 29 -30 -31 17 -19 21 -22 23 -2 0
18 29 -30 -31 17 -19 21 -22 -23 -2 0
18 29 -30 -31 17 -19 -21 22 23 -2 0
18 29 -30 -31 17 -19 -21 22 -23 -2 0
18 29 -30 -31 17 -19 -21 -22 23 -2 0
18 29 -30 -31 17 -19 -21 -22 -23 -2 0
18 29 -30 -31 -17 19 21 22 23 2 0
18 29 -30 -31 -17 19 21 22 -23 -2 0
18 29 -30 -31 -17 19 21 -22 23 -2 0
18 29 -30 -31 -17 19 21 -22 -23 -2 0
18 29 -30 -31 -17 19 -21 22 23 -2 0
18 29 -30 -31 -17 19 -21 22 -23 -2 0
18 29 -30 -31 -17 19 -21 -22 23 -2 0
18 29 -30 -31 -17 19 -21 -22 -23 -2 0
18 29 -30 -31 -17 -19 21 22 23 -2 0
18 29 -30 -31 -17 -19 21 22 -23 -2 0
18 29 -30 -31 -17 -19 21 -22 23 -2 0
18 29 -30 -31 -17 -19 21 -22 -23 -2 0
18 29 -30 -31 -17 -19 -21 22 23 -2 0
18 29 -30 -31 -17 -19 -21 22 -23 -2 0
18 29 -30 -31 -17 -19 -21 -22 23 -2 0
18 29 -30 -31 -17 -19 -21 -22 -23 -2 0
18 -29 30 31 17 19 21 22 23 -2 0
18 -29 30 31 17 19 21 22 -23 -2 0
18 -29 30 31 17 19 21 -22 23 -2 0
18 -29 30 31 17 19 21 -22 -23 2 0
18 -29 30 31 17 19 -21 22 23 -2 0
18 -29 30 31 17 19 -21 22 -23 2 0
18 -29 30 31 17 19 -21 -22 23 2 0
18 -29 30 31 17 19 -21 -22 -23 -2 0
18 -29 30 31 17 -19 21 22 23 -2 0
18 -29 30 31 17 -19 21 22 -23 2 0
18 -29 30 31 17 -19 21 -22 23 2 0
18 -29 30 31 17 -19 21 -22 -23 -2 0
18 -29 30 31 17 -19 -21 22 23 2 0
18 -29 30 31 17 -19 -21 22 -23 -2 0
18 -29 30 31 17 -19 -21 -22 23 -2 0
18 -29 30 31 17 -19 -21 -22 -23 -2 0
18 -29 30 31 -17 19 21 22 23 -2 0
18 -29 30 31 -17 19 21 22 -23 2 0
18 -29 30 31 -17 19 21 -22 23 2 0
18 -29 30 31 -17 19 21 -22 -23 -2 0
18 -29 30 31 -17 19 -21 22 23 2 0
18 -29 30 31 -17 19 -21 22 -23 -2 0
18 -29 30 31 -17 19 -21 -22 23 -2 0
18 -29 30 31 -17 19 -21 -22 -23 -2 0
18 -29 30 31 -17 -19 21 22 23 2 0
18 -29 30 31 -17 -19 21 22 -23 -2 0
18 -29 30 31 -17 -19 21 -22 23 -2 0
18 -29 30 31 -17 -19 21 -22 -23 -2 0
18 -29 30 31 -17 -19 -21 22 23 -2 0
18 -29 30 31 -17 -19 -21 22 -23 -2 0
18 -29 30 31 -17 -19 -21 -22 23 -2 0
18 -29 30 31 -17 -19 -21 -22 -23 -2 0
18 -29 30 -31 17 19 21 22 23 -2 0
18 -29 30 -31 17 19 21 22 -23 2 0
18 -29 30 -31 17 19 21 -22 23 2 0
18 -29 30 -31 17 19 21 -22 -23 -2 0
18 -29 30 -31 17 19 -21 22 23 2 0
18 -29 30 -31 17 19 -21 22 -23 -2 0
18 -29 30 -31 17 19 -21 -22 23 -2 0
18 -29 30 -31 17 19 -21 -22 -23 -2 0
18 -29 30 -31 17 -19 21 22 23 2 0
18 -29 30 -31 17 -19 21 22 -23 -2 0
18 -29 30 -31 17 -19 21 -22 23 -2 0
18 -29 30 -31 17 -19 21 -22 -23 -2 0
18 -29 30 -31 17 -19 -21 22 23 -2 0
18 -29 30 -31 17 -19 -21 22 -23 -2 0
18 -29 30 -31 17 -19 -21 -22 23 -2 0
18 -29 30 -31 17 -19 -21 -22 -23 -2 0
18 -29 30 -31 -17 19 21 22 23 2 0
18 -29 30 -31 -17 19 21 22 -23 -2 0
18 -29 30 -31 -17 19 21 -22 23 -2 0
18 -29 30 -31 -17 19 21 -22 -23 -2 0
18 -29 30 -31 -17 19 -21 22 23 -2 0
18 -29 30 -31 -17 19 -21 22 -23 -2 0
18 -29 30 -31 -17 19 -21 -22 23 -2 0
18 -29 30 -31 -17 19 -21 -22 -23 -2 0
18 -29 30 -31 -17 -19 21 22 23 -2 0
18 -29 30 -31 -17 -19 21 22 -23 -2 0
18 -29 30 -31 -17 -19 21 -22 23 -2 0
18 -29 30 -31 -17 -19 21 -22 -23 -2 0
18 -29 30 -31 -17 -19 -21 22 23 -2 0
18 -29 30 -31 -17 -19 -21 22 -23 -2 0
18 -29 30 -31 -17 -19 -21 -22 23 -2 0
18 -29 30 -31 -17 -19 -21 -22 -23 -2 0
18 -29 -30 31 17 19 21 22 23 -2 0
18 -29 -30 31 17 19 21 22 -23 2 0
18 -29 -30 31 17 19 21 -22 23 2 0
18 -29 -30 31 17 19 21 -22 -23 -2 0
18 -29 -30 31 17 19 -21 22 23 2 0
18 -29 -30 31 17 19 -21 22 -23 -2 0
18 -29 -30 31 17 19 -21 -22 23 -2 0
18 -29 -30 31 17 19 -21 -22 -23 -2 0
18 -29 -30 31 17 -19 21 22 23 2 0
18 -29 -30 31 17 -19 21 22 -23 -2 0
18 -29 -30 31 17 -19 21 -22 23 -2 0
18 -29 -30 31 17 -19 21 -22 -23 -2 0
18 -29 -30 31 17 -19 -21 22 23 -2 0
18 -29 -30 31 17 -19 -21 22 -23 -2 0
18 -29 -30 31 17 -19 -21 -22 23 -2 0
18 -29 -30 31 17 -19 -21 -22 -23 -2 0
18 -29 -30 31 -17 19 21 22 23 2 0
18 -29 -30 31 -17 19 21 22 -23 -2 0
18 -29 -30 31 -17 19 21 -22 23 -2 0
18 -29 -30 31 -17 19 21 -22 -23 -2 0
18 -29 -30 31 -17 19 -21 22 23 -2 0
18 -29 -30 31 -17 19 -21 22 -23 -2 0
18 -29 -30 31 -17 19 -21 -22 23 -2 0
18 -29 -30 31 -17 19 -21 -22 -23 -2 0
18 -29 -30 31 -17 -19 21 22 23 -2 0
18 -29 -30 31 -17 -19 21 22 -23 -2 0
18 -29 -30 31 -17 -19 21 -22 23 -2 0
18 -29 -30 31 -17 -19 21 -22 -23 -2 0
18 -29 -30 31 -17 -19 -21 22 23 -2 0
18 -29 -30 31 -17 -19 -21 22 -23 -2 0
18 -29 -30 31 -17 -19 -21 -22 23 -2 0
18 -29 -30 31 -17 -19 -21 -22 -23 -2 0
18 -29 -30 -31 17 19 21 22 23 2 0
18 -29 -30 -31 17 19 21 22 -23 -2 0
18 -29 -30 -31 17 19 21 -22 23 -2 0
18 -29 -30 -31 17 19 21 -22 -23 -2 0
18 -29 -30 -31 17 19 -21 22 23 -2 0
18 -29 -30 -31 17 19 -21 22 -23 -2 0
18 -29 -30 -31 17 19 -21 -22 23 -2 0
18 -29 -30 -31 17 19 -21 -22 -23 -2 0
18 -29 -30 -31 17 -19 21 22 23 -2 0
18 -29 -30 -31 17 -19 21 22 -23 -2 0
18 -29 -30 -31 17 -19 21 -22 23 -2 0
18 -29 -30 -31 17 -19 21 -22 -23 -2 0
18 -29 -30 -31 17 -19 -21 22 23 -2 0
18 -29 -30 -31 17 -19 -21 22 -23 -2 0
18 -29 -30 -31 17 -19 -21 -22 23 -2 0
18 -29 -30 -31 17 -19 -21 -22 -23 -2 0
18 -29 -30 -31 -17 19 21 22 23 -2 0
18 -29 -30 -31 -17 19 21 22 -23 -2 0
18 -29 -30 -31 -17 19 21 -22 23 -2 0
18 -29 -30 -31 -17 19 21 -22 -23 -2 0
18 -29 -30 -31 -17 19 -21 22 23 -2 0
18 -29 -30 -31 -17 19 -21 22 -23 -2 0
18 -29 -30 -31 -17 19 -21 -22 23 -2 0
18 -29 -30 -31 -17 19 -21 -22 -23 -2 0
18 -29 -30 -31 -17 -19 21 22 23 -2 0
18 -29 -30 -31 -17 -19 21 22 -23 -2 0
18 -29 -30 -31 -17 -19 21 -22 23 -2 0
18 -29 -30 -31 -17 -19 21 -22 -23 -2 0
18 -29 -30 -31 -17 -19 -21 22 23 -2 0
18 -29 -30 -31 -17 -19 -21 22 -23 -2 0
18 -29 -30 -31 -17 -19 -21 -22 23 -2 0
18 -29 -30 -31 -17 -19 -21 -22 -23 -2 0
-18 29 30 31 17 19 21 22 23 -2 0
-18 29 30 31 17 19 21 22 -23 -2 0
-18 29 30 31 17 19 21 -22 23 -2 0
-18 29 30 31 17 19 21 -22 -23 2 0
-18 29 30 31 17 19 -21 22 23 -2 0
-18 29 30 31 17 19 -21 22 -23 2 0
-18 29 30 31 17 19 -21 -22 23 2 0
-18 29 30 31 17 19 -21 -22 -23 2 0
-18 29 30 31 17 -19 21 22 23 -2 0
-18 29 30 31 17 -19 21 22 -23 2 0
-18 29 30 31 17 -19 21 -22 23 2 0
-18 29 30 31 17 -19 21 -22 -23 2 0
-18 29 30 31 17 -19 -21 22 23 2 0
-18 29 30 31 17 -19 -21 22 -23 2 0
-18 29 30 31 17 -19 -21 -22 23 2 0
-18 29 30 31 17 -19 -21 -22 -23 -2 0
-18 29 30 31 -17 19 21 22 23 -2 0
-18 29 30 31 -17 19 21 22 -23 2 0
-18 29 30 31 -17 19 21 -22 23 2 0
-18 29 30 31 -17 19 21 -22 -23 2 0
-18 29 30 31 -17 19 -21 22 23 2 0
-18 29 30 31 -17 19 -21 22 -23 2 0
-18 29 30 31 -17 19 -21 -22 23 2 0
-18 29 30 31 -17 19 -21 -22 -23 -2 0
-18 29 30 31 -17 -19 21 22 23 2 0
-18 29 30 31 -17 -19 21 22 -23 2 0
-18 29 30 31 -17 -19 21 -22 23 2 0
-18 29 30 31 -17 -19 21 -22 -23 -2 0
-18 29 30 31 -17 -19 -21 22 23 2 0
-18 29 30 31 -17 -19 -21 22 -23 -2 0
-18 29 30 31 -17 -19 -21 -22 23 -2 0
-18 29 30 31 -17 -19 -21 -22 -23 -2 0
-18 29 30 -31 17 19 21 22 23 -2 0
-18 29 30 -31 17 19 21 22 -23 2 0
-18 29 30 -31 17 19 21 -22 23 2 0
-18 29 30 -31 17 19 21 -22 -23 2 0
-18 29 30 -31 17 19 -21 22 23 2 0
-18 29 30 -31 17 19 -21 22 -23 2 0
-18 29 30 -31 17 19 -21 -22 23 2 0
-18 29 30 -31 17 19 -21 -22 -23 -2 0
-18 29 30 -31 17 -19 21 22 23 2 0
-18 29 30 -31 17 -19 21 22 -23 2 0
-18 29 30 -31 17 -19 21 -22 23 2 0
-18 29 30 -31 17 -19 21 -22 -23 -2 0
-18 29 30 -31 17 -19 -21 22 23 2 0
-18 29 30 -31 17 -19 -21 22 -23 -2 0
-18 29 30 -31 17 -19 -21 -22 23 -2 0
-18 29 30 -31 17 -19 -21 -22 -23 -2 0
-18 29 30 -31 -17 19 21 22 23 2 0
-18 29 30 -31 -17 19 21 22 -23 2 0
-18 29 30 -31 -17 19 21 -22 23 2 0
-18 29 30 -31 -17 19 21 -22 -23 -2 0
-18 29 30 -31 -17 19 -21 22 23 2 0
-18 29 30 -31 -17 19 -21 22 -23 -2 0
-18 29 30 -31 -17 19 -21 -22 23 -2 0
-18 29 30 -31 -17 19 -21 -22 -23 -2 0
-18 29 30 -31 -17 -19 21 22 23 2 0
-18 29 30 -31 -17 -19 21 22 -23 -2 0
-18 29 30 -31 -17 -19 21 -22 23 -2 0
-18 29 30 -31 -17 -19 21 -22 -23 -2 0
-18 29 30 -31 -17 -19 -21 22 23 -2 0
-18 29 30 -31 -17 -19 -21 22 -23 -2 0
-18 29 30 -31 -17 -19 -21 -22 23 -2 0
-18 29 30 -31 -17 -19 -21 -22 -23 -2 0
-18 29 -30 31 17 19 21 22 23 -2 0
-18 29 -30 31 17 19 21 22 -23 2 0
-18 29 -30 31 17 19 21 -22 23 2 0
-18 29 -30 31 17 19 21 -22 -23 2 0
-18 29 -30 31 17 19 -21 22 23 2 0
-18 29 -30 31 17 19 -21 22 -23 2 0
-18 29 -30 31 17 19 -21 -22 23 2 0
-18 29 -30 31 17 19 -21 -22 -23 -2 0
-18 29 -30 31 17 -19 21 22 23 2 0
-18 29 -30 31 17 -19 21 22 -23 2 0
-18 29 -30 31 17 -19 21 -22 23 2 0
-18 29 -30 31 17 -19 21 -22 -23 -2 0
-18 29 -30 31 17 -19 -21 22 23 2 0
-18 29 -30 31 17 -19 -21 22 -23 -2 0
-18 29 -30 31 17 -19 -21 -22 23 -2 0
-18 29 -30 31 17 -19 -21 -22 -23 -2 0
-18 29 -30 31 -17 19 21 22 23 2 0
-18 29 -30 31 -17 19 21 22 -23 2 0
-18 29 -30 31 -17 19 21 -22 23 2 0
-18 29 -30 31 -17 19 21 -22 -23 -2 0
-18 29 -30 31 -17 19 -21 22 23 2 0
-18 29 -30 31 -17 19 -21 22 -23 -2 0
-18 29 -30 31 -17 19 -21 -22 23 -2 0
-18 29 -30 31 -17 19 -21 -22 -23 -2 0
-18 29 -30 31 -17 -19 21 22 23 2 0
-18 29 -30 31 -17 -19 21 22 -23 -2 0
-18 29 -30 31 -17 -19 21 -22 23 -2 0
-18 29 -30 31 -17 -19 21 -22 -23 -2 0
-18 29 -30 31 -17 -19 -21 22 23 -2 0
-18 29 -30 31 -17 -19 -21 22 -23 -2 0
-18 29 -30 31 -17 -19 -21 -22 23 -2 0
-18 29 -30 31 -17 -19 -21 -22 -23 -2 0
-18 29 -30 -31 17 19 21 22 23 2 0
-18 29 -30 -31 17 19 21 22 -23 2 0
-18 29 -30 -31 17 19 21 -22 23 2 0
-18 29 -30 -31 17 19 21 -22 -23 -2 0
-18 29 -30 -31 17 19 -21 22 23 2 0
-18 29 -30 -31 17 19 -21 22 -23 -2 0
-18 29 -30 -31 17 19 -21 -22 23 -2 0
-18 29 -30 -31 17 19 -21 -22 -23 -2 0
-18 29 -30 -31 17 -19 21 22 23 2 0
-18 29 -30 -31 17 -19 21 22 -23 -2 0
-18 29 -30 -31 17 -19 21 -22 23 -2 0
-18 29 -30 -31 17 -19 21 -22 -23 -2 0
-18 29 -30 -31 17 -19 -21 22 23 -2 0
-18 29 -30 -31 17 -19 -21 22 -23 -2 0
-18 29 -30 -31 17 -19 -21 -22 23 -2 0
-18 29 -30 -31 17 -19 -21 -22 -23 -2 0
-18 29 -30 -31 -17 19 21 22 23 2 0
-18 29 -30 -31 -17 19 21 22 -23 -2 0
-18 29 -30 -31 -17 19 21 -22 23 -2 0
-18 29 -30 -31 -17 19 21 -22 -23 -2 0
-18 29 -30 -31 -17 19 -21 22 23 -2 0
-18 29 -30 -31 -17 19 -21 22 -23 -2 0
-18 29 -30 -31 -17 19 -21 -22 23 -2 0
-18 29 -30 -31 -17 19 -21 -22 -23 -2 0
-18 29 -30 -31 -17 -19 21 22 23 -2 0
-18 29 -30 -31 -17 -19 21 22 -23 -2 0
-18 29 -30 -31 -17 -19 21 -22 23 -2 0
-18 29 -30 -31 -17 -19 21 -22 -23 -2 0
-18 29 -30 -31 -17 -19 -21 22 23 -2 0
-18 29 -30 -31 -17 -19 -21 22 -23 -2 0
-18 29 -30 -31 -17 -19 -21 -22 23 -2 0
-18 29 -30 -31 -17 -19 -21 -22 -23 -2 0
-18 -29 30 31 17 19 21 22 23 -2 0
-18 -29 30 31 17 19 21 22 -23 2 0
-18 -29 30 31 17 19 21 -22 23 2 0
-18 -29 30 31 17 19 21 -22 -23 2 0
-18 -29 30 31 17 19 -21 22 23 2 0
-18 -29 30 31 17 19 -21 22 -23 2 0
-18 -29 30 31 17 19 -21 -22 23 2 0
-18 -29 30 31 17 19 -21 -22 -23 -2 0
-18 -29 30 31 17 -19 21 22 23 2 0
-18 -29 30 31 17 -19 21 22 -23 2 0
-18 -29 30 31 17 -19 21 -22 23 2 0
-18 -29 30 31 17 -19 21 -22 -23 -2 0
-18 -29 30 31 17 -19 -21 22 23 2 0
-18 -29 30 31 17 -19 -21 22 -23 -2 0
-18 -29 30 31 17 -19 -21 -22 23 -2 0
-18 -29 30 31 17 -19 -21 -22 -23 -2 0
-18 -29 30 31 -17 19 21 22 23 2 0
-18 -29 30 31 -17 19 21 22 -23 2 0
-18 -29 30 31 -17 19 21 -22 23 2 0
-18 -29 30 31 -17 19 21 -22 -23 -2 0
-18 -29 30 31 -17 19 -21 22 23 2 0
-18 -29 30 31 -17 19 -21 22 -23 -2 0
-18 -29 30 31 -17 19 -21 -22 23 -2 0
-18 -29 30 31 -17 19 -21 -22 -23 -2 0
-18 -29 30 31 -17 -19 21 22 23 2 0
-18 -29 30 31 -17 -19 21 22 -23 -2 0
-18 -29 30 31 -17 -19 21 -22 23 -2 0
-18 -29 30 31 -17 -19 21 -22 -23 -2 0
-18 -29 30 31 -17 -19 -21 22 23 -2 0
-18 -29 30 31 -17 -19 -21 22 -23 -2 0
-18 -29 30 31 -17 -19 -21 -22 23 -2 0
-18 -29 30 31 -17 -19 -21 -22 -23 -2 0
-18 -29 30 -31 17 19 21 22 23 2 0
-18 -29 30 -31 17 19 21 22 -23 2 0
-18 -29 30 -31 17 19 21 -22 23 2 0
-18 -29 30 -31 17 19 21 -22 -23 -2 0
-18 -29 30 -31 17 19 -21 22 23 2 0
-18 -29 30 -31 17 19 -21 22 -23 -2 0
-18 -29 30 -31 17 19 -21 -22 23 -2 0
-18 -29 30 -31 17 19 -21 -22 -23 -2 0
-18 -29 30 -31 17 -19 21 22 23 2 0
-18 -29 30 -31 17 -19 21 22 -23 -2 0
-18 -29 30 -31 17 -19 21 -22 23 -2 0
-18 -29 30 -31 17 -19 21 -22 -23 -2 0
-18 -29 30 -31 17 -19 -21 22 23 -2 0
-18 -29 30 -31 17 -19 -21 22 -23 -2 0
-18 -29 30 -31 17 -19 -21 -22 23 -2 0
-18 -29 30 -31 17 -19 -21 -22 -23 -2 0
-18 -29 30 -31 -17 19 21 22 23 2 0
-18 -29 30 -31 -17 19 21 22 -23 -2 0
-18 -29 30 -31 -17 19 21 -22 23 -2 0
-18 -29 30 -31 -17 19 21 -22 -23 -2 0
-18 -29 30 -31 -17 19 -21 22 23 -2 0
-18 -29 30 -31 -17 19 -21 22 -23 -2 0
-18 -29 30 -31 -17 19 -21 -22 23 -2 0
-18 -29 30 -31 -17 19 -21 -22 -23 -2 0
-18 -29 30 -31 -17 -19 21 22 23 -2 0
-18 -29 30 -31 -17 -19 21 22 -23 -2 0
-18 -29 30 -31 -17 -19 21 -22 23 -2 0
-18 -29 30 -31 -17 -19 21 -22 -23 -2 0
-18 -29 30 -31 -17 -19 -21 22 23 -2 0
-18 -29 30 -31 -17 -19 -21 22 -23 -2 0
-18 -29 30 -31 -17 -19 -21 -22 23 -2 0
-18 -29 30 -31 -17 -19 -21 -22 -23 -2 0
-18 -29 -30 31 17 19 21 22 23 2 0
-18 -29 -30 31 17 19 21 22 -23 2 0
-18 -29 -30 31 17 19 21 -22 23 2 0
-18 -29 -30 31 17 19 21 -22 -23 -2 0
-18 -29 -30 31 17 19 -21 22 23 2 0
-18 -29 -30 31 17 19 -21 22 -23 -2 0
-18 -29 -30 31 17 19 -21 -22 23 -2 0
-18 -29 -30 31 17 19 -21 -22 -23 -2 0
-18 -29 -30 31 17 -19 21 22 23 2 0
-18 -29 -30 31 17 -19 21 22 -23 -2 0
-18 -29 -30 31 17 -19 21 -22 23 -2 0
-18 -29 -30 31 17 -19 21 -22 -23 -2 0
-18 -29 -30 31 17 -19 -21 22 23 -2 0
-18 -29 -30 31 17 -19 -21 22 -23 -2 0
-18 -29 -30 31 17 -19 -21 -22 23 -2 0
-18 -29 -30 31 17 -19 -21 -22 -23 -2 0
-18 -29 -30 31 -17 19 21 22 23 2 0
-18 -29 -30 31 -17 19 21 22 -23 -2 0
-18 -29 -30 31 -17 19 21 -22 23 -2 0
-18 -29 -30 31 -17 19 21 -22 -23 -2 0
-18 -29 -30 31 -17 19 -21 22 23 -2 0
-18 -29 -30 31 -17 19 -21 22 -23 -2 0
-18 -29 -30 31 -17 19 -21 -22 23 -2 0
-18 -29 -30 31 -17 19 -21 -22 -23 -2 0
-18 -29 -30 31 -17 -19 21 22 23 -2 0
-18 -29 -30 31 -17 -19 21 22 -23 -2 0
-18 -29 -30 31 -17 -19 21 -22 23 -2 0
-18 -29 -30 31 -17 -19 21 -22 -23 -2 0
-18 -29 -30 31 -17 -19 -21 22 23 -2 0
-18 -29 -30 31 -17 -19 -21 22 -23 -2 0
-18 -29 -30 31 -17 -19 -21 -22 23 -2 0
-18 -29 -30 31 -17 -19 -21 -22 -23 -2 0
-18 -29 -30 -31 17 19 21 22 23 2 0
-18 -29 -30 -31 17 19 21 22 -23 -2 0
-18 -29 -30 -31 17 19 21 -22 23 -2 0
-18 -29 -30 -31 17 19 21 -22 -23 -2 0
-18 -29 -30 -31 17 19 -21 22 23 -2 0
-18 -29 -30 -31 17 19 -21 22 -23 -2 0
-18 -29 -30 -31 17 19 -21 -22 23 -2 0
-18 -29 -30 -31 17 19 -21 -22 -23 -2 0
-18 -29 -30 -31 17 -19 21 22 23 -2 0
-18 -29 -30 -31 17 -19 21 22 -23 -2 0
-18 -29 -30 -31 17 -19 21 -22 23 -2 0
-18 -29 -30 -31 17 -19 21 -22 -23 -2 0
-18 -29 -30 -31 17 -19 -21 22 23 -2 0
-18 -29 -30 -31 17 -19 -21 22 -23 -2 0
-18 -29 -30 -31 17 -19 -21 -22 23 -2 0
-18 -29 -30 -31 17 -19 -21 -22 -23 -2 0
-18 -29 -30 -31 -17 19 21 22 23 -2 0
-18 -29 -30 -31 -17 19 21 22 -23 -2 0
-18 -29 -30 -31 -17 19 21 -22 23 -2 0
-18 -29 -30 -31 -17 19 21 -22 -23 -2 0
-18 -29 -30 -31 -17 19 -21 22 23 -2 0
-18 -29 -30 -31 -17 19 -21 22 -23 -2 0
-18 -29 -30 -31 -17 19 -21 -22 23 -2 0
-18 -29 -30 -31 -17 19 -21 -22 -23 -2 0
-18 -29 -30 -31 -17 -19 21 22 23 -2 0
-18 -29 -30 -31 -17 -19 21 22 -23 -2 0
-18 -29 -30 -31 -17 -19 21 -22 23 -2 0
-18 -29 -30 -31 -17 -19 21 -22 -23 -2 0
-18 -29 -30 -31 -17 -19 -21 22 23 -2 0
-18 -29 -30 -31 -17 -19 -21 22 -23 -2 0
-18 -29 -30 -31 -17 -19 -21 -22 23 -2 0
-18 -29 -30 -31 -17 -19 -21 -22 -23 -2 0
19 30 31 32 18 20 22 23 24 -3 0
19 30 31 32 18 20 22 23 -24 -3 0
19 30 31 32 18 20 22 -23 24 -3 0
19 30 31 32 18 20 22 -23 -24 -3 0
19 30 31 32 18 20 -22 23 24 -3 0
19 30 31 32 18 20 -22 23 -24 -3 0
19 30 31 32 18 20 -22 -23 24 -3 0
19 30 31 32 18 20 -22 -23 -24 3 0
19 30 31 32 18 -20 22 23 24 -3 0
19 30 31 32 18 -20 22 23 -24 -3 0
19 30 31 32 18 -20 22 -23 24 -3 0
19 30 31 32 18 -20 22 -23 -24 3 0
19 30 31 32 18 -20 -22 23 24 -3 0
19 30 31 32 18 -20 -22 23 -24 3 0
19 30 31 32 18 -20 -22 -23 24 3 0
19 30 31 32 18 -20 -22 -23 -24 -3 0
19 30 31 32 -18 20 22 23 24 -3 0
19 30 31 32 -18 20 22 23 -24 -3 0
19 30 31 32 -18 20 22 -23 24 -3 0
19 30 31 32 -18 20 22 -23 -24 3 0
19 30 31 32 -18 20 -22 23 24 -3 0
19 30 31 32 -18 20 -22 23 -24 3 0
19 30 31 32 -18 20 -22 -23 24 3 0
19 30 31 32 -18 20 -22 -23 -24 -3 0
19 30 31 32 -18 -20 22 23 24 -3 0
19 30 31 32 -18 -20 22 23 -24 3 0
19 30 31 32 -18 -20 22 -23 24 3 0
19 30 31 32 -18 -20 22 -23 -24 -3 0
19 30 31 32 -18 -20 -22 23 24 3 0
19 30 31 32 -18 -20 -22 23 -24 -3 0
19 30 31 32 -18 -20 -22 -23 24 -3 0
19 30 31 32 -18 -20 -22 -23 -24 -3 0
19 30 31 -32 18 20 22 23 24 -3 0
19 30 31 -32 18 20 22 23 -24 -3 0
19 30 31 -32 18 20 22 -23 24 -3 0
19 30 31 -32 18 20 22 -23 -24 3 0
19 30 31 -32 18 20 -22 23 24 -3 0
19 30 31 -32 18 20 -22 23 -24 3 0
19 30 31 -32 18 20 -22 -23 24 3 0
19 30 31 -32 18 20 -22 -23 -24 -3 0
19 30 31 -32 18 -20 22 23 24 -3 0
19 30 31 -32 18 -20 22 23 -24 3 0
19 30 31 -32 18 -20 22 -23 24 3 0
19 30 31 -32 18 -20 22 -23 -24 -3 0
19 30 31 -32 18 -20 -22 23 24 3 0
19 30 31 -32 18 -20 -22 23 -24 -3 0
19 30 31 -32 18 -20 -22 -23 24 -3 0
19 30 31 -32 18 -20 -22 -23 -24 -3 0
19 30 31 -32 -18 20 22 23 24 -3 0
19 30 31 -32 -18 20 22 23 -24 3 0
19 30 31 -32 -18 20 22 -23 24 3 0
19 30 31 -32 -18 20 22 -23 -24 -3 0
19 30 31 -32 -18 20 -22 23 24 3 0
19 30 31 -32 -18 20 -22 23 -24 -3 0
19 30 31 -32 -18 20 -22 -23 24 -3 0
19 30 31 -32 -18 20 -22 -23 -24 -3 0
19 30 31 -32 -18 -20 22 23 24 3 0
19 30 31 -32 -18 -20 22 23 -24 -3 0
19 30 31 -32 -18 -20 22 -23 24 -3 0
19 30 31 -32 -18 -20 22 -23 -24 -3 0
19 30 31 -32 -18 -20 -22 23 24 -3 0
19 30 31 -32 -18 -20 -22 23 -24 -3 0
19 30 31 -32 -18 -20 -22 -23 24 -3 0
19 30 31 -32 -18 -20 -22 -23 -24 -3 0
19 30 -31 32 18 20 22 23 24 -3 0
19 30 -31 32 18 20 22 23 -24 -3 0
19 30 -31 32 18 20 22 -23 24 -3 0
19 30 -31 32 18 20 22 -23 -24 3 0
19 30 -31 32 18 20 -22 23 24 -3 0
19 30 -31 32 18 20 -22 23 -24 3 0
19 30 -31 32 18 20 -22 -23 24 3 0
19 30 -31 32 18 20 -22 -23 -24 -3 0
19 30 -31 32 18 -20 22 23 24 -3 0
19 30 -31 32 18 -20 22 23 -24 3 0
19 30 -31 32 18 -20 22 -23 24 3 0
19 30 -31 32 18 -20 22 -23 -24 -3 0
19 30 -31 32 18 -20 -22 23 24 3 0
19 30 -31 32 18 -20 -22 23 -24 -3 0
19 30 -31 32 18 -20 -22 -23 24 -3 0
19 30 -31 32 18 -20 -22 -23 -24 -3 0
19 30 -31 32 -18 20 22 23 24 -3 0
19 30 -31 32 -18 20 22 23 -24 3 0
19 30 -31 32 -18 20 22 -23 24 3 0
19 30 -31 32 -18 20 22 -23 -24 -3 0
19 30 -31 32 -18 20 -22 23 24 3 0
19 30 -31 32 -18 20 -22 23 -24 -3 0
19 30 -31 32 -18 20 -22 -23 24 -3 0
19 30 -31 32 -18 20 -22 -23 -24 -3 0
19 30 -31 32 -18 -20 22 23 24 3 0
19 30 -31 32 -18 -20 22 23 -24 -3 0
19 30 -31 32 -18 -20 22 -23 24 -3 0
19 30 -31 32 -18 -20 22 -23 -24 -3 0
19 30 -31 32 -18 -20 -22 23 24 -3 0
19 30 -31 32 -18 -20 -22 23 -24 -3 0
19 30 -31 32 -18 -20 -22 -23 24 -3 0
19 30 -31 32 -18 -20 -22 -23 -24 -3 0
19 30 -31 -32 18 20 22 23 24 -3 0
19 30 -31 -32 18 20 22 23 -24 3 0
19 30 -31 -32 18 20 22 -23 24 3 0
19 30 -31 -32 18 20 22 -23 -24 -3 0
19 30 -31 -32 18 20 -22 23 24 3 0
19 30 -31 -32 18 20 -22 23 -24 -3 0
19 30 -31 -32 18 20 -22 -23 24 -3 0
19 30 -31 -32 18 20 -22 -23 -24 -3 0
19 30 -31 -32 18 -20 22 23 24 3 0
19 30 -31 -32 18 -20 22 23 -24 -3 0
19 30 -31 -32 18 -20 22 -23 24 -3 0
19 30 -31 -32 18 -20 22 -23 -24 -3 0
19 30 -31 -32 18 -20 -22 23 24 -3 0
19 30 -31 -32 18 -20 -22 23 -24 -3 0
19 30 -31 -32 18 -20 -22 -23 24 -3 0
19 30 -31 -32 18 -20 -22 -23 -24 -3 0
19 30 -31 -32 -18 20 22 23 24 3 0
19 30 -31 -32 -18 20 22 23 -24 -3 0
19 30 -31 -32 -18 20 22 -23 24 -3 0
19 30 -31 -32 -18 20 22 -23 -24 -3 0
19 30 -31 -32 -18 20 -22 23 24 -3 0
19 30 -31 -32 -18 20 -22 23 -24 -3 0
19 30 -31 -32 -18 20 -22 -23 24 -3 0
19 30 -31 -32 -18 20 -22 -23 -24 -3 0
19 30 -31 -32 -18 -20 22 23 24 -3 0
19 30 -31 -32 -18 -20 22 23 -24 -3 0
19 30 -31 -32 -18 -20 22 -23 24 -3 0
19 30 -31 -32 -18 -20 22 -23 -24 -3 0
19 30 -31 -32 -18 -20 -22 23 24 -3 0
19 30 -31 -32 -18 -20 -22 23 -24 -3 0
19 30 -31 -32 -18 -20 -22 -23 24 -3 0
19 30 -31 -32 -18 -20 -22 -23 -24 -3 0
19 -30 31 32 18 20 22 23 24 -3 0
19 -30 31 32 18 20 22 23 -24 -3 0
19 -30 31 32 18 20 22 -23 24 -3 0
19 -30 31 32 18 20 22 -23 -24 3 0
19 -30 31 32 18 20 -22 23 24 -3 0
19 -30 31 32 18 20 -22 23 -24 3 0
19 -30 31 32 18 20 -22 -23 24 3 0
19 -30 31 32 18 20 -22 -23 -24 -3 0
19 -30 31 32 18 -20 22 23 24 -3 0
19 -30 31 32 18 -20 22 23 -24 3 0
19 -30 31 32 18 -20 22 -23 24 3 0
19 -30 31 32 18 -20 22 -23 -24 -3 0
19 -30 31 32 18 -20 -22 23 24 3 0
19 -30 31 32 18 -20 -22 23 -24 -3 0
19 -30 31 32 18 -20 -22 -23 24 -3 0
19 -30 31 32 18 -20 -22 -23 -24 -3 0
19 -30 31 32 -18 20 22 23 24 -3 0
19 -30 31 32 -18 20 22 23 -24 3 0
19 -30 31 32 -18 20 22 -23 24 3 0
19 -30 31 32 -18 20 22 -23 -24 -3 0
19 -30 31 32 -18 20 -22 23 24 3 0
19 -30 31 32 -18 20 -22 23 -24 -3 0
19 -30 31 32 -18 20 -22 -23 24 -3 0
19 -30 31 32 -18 20 -22 -23 -24 -3 0
19 -30 31 32 -18 -20 22 23 24 3 0
19 -30 31 32 -18 -20 22 23 -24 -3 0
19 -30 31 32 -18 -20 22 -23 24 -3 0
19 -30 31 32 -18 -20 22 -23 -24 -3 0
19 -30 31 32 -18 -20 -22 23 24 -3 0
19 -30 31 32 -18 -20 -22 23 -24 -3 0
19 -30 31 32 -18 -20 -22 -23 24 -3 0
19 -30 31 32 -18 -20 -22 -23 -24 -3 0
19 -30 31 -32 18 20 22 23 24 -3 0
19 -30 31 -32 18 20 22 23 -24 3 0
19 -30 31 -32 18 20 22 -23 24 3 0
19 -30 31 -32 18 20 22 -23 -24 -3 0
19 -30 31 -32 18 20 -22 23 24 3 0
19 -30 31 -32 18 20 -22 23 -24 -3 0
19 -30 31 -32 18 20 -22 -23 24 -3 0
19 -30 31 -32 18 20 -22 -23 -24 -3 0
19 -30 31 -32 18 -20 22 23 24 3 0
19 -30 31 -32 18 -20 22 23 -24 -3 0
19 -30 31 -32 18 -20 22 -23 24 -3 0
19 -30 31 -32 18 -20 22 -23 -24 -3 0
19 -30 31 -32 18 -20 -22 23 24 -3 0
19 -30 31 -32 18 -20 -22 23 -24 -3 0
19 -30 31 -32 18 -20 -22 -23 24 -3 0
19 -30 31 -32 18 -20 -22 -23 -24 -3 0
19 -30 31 -32 -18 20 22 23 24 3 0
19 -30 31 -32 -18 20 22 23 -24 -3 0
19 -30 31 -32 -18 20 22 -23 24 -3 0
19 -30 31 -32 -18 20 22 -23 -24 -3 0
19 -30 31 -32 -18 20 -22 23 24 -3 0
19 -30 31 -32 -18 20 -22 23 -24 -3 0
19 -30 31 -32 -18 20 -22 -23 24 -3 0
19 -30 31 -32 -18 20 -22 -23 -24 -3 0
19 -30 31 -32 -18 -20 22 23 24 -3 0
19 -30 31 -32 -18 -20 22 23 -24 -3 0
19 -30 31 -32 -18 -20 22 -23 24 -3 0
19 -30 31 -32 -18 -20 22 -23 -24 -3 0
19 -30 31 -32 -18 -20 -22 23 24 -3 0
19 -30 31 -32 -18 -20 -22 23 -24 -3 0
19 -30 31 -32 -18 -20 -22 -23 24 -3 0
19 -30 31 -32 -18 -20 -22 -23 -24 -3 0
19 -30 -31 32 18 20 22 23 24 -3 0
19 -30 -31 32 18 20 22 23 -24 3 0
19 -30 -31 32 18 20 22 -23 24 3 0
19 -30 -31 32 18 20 22 -23 -24 -3 0
19 -30 -31 32 18 20 -22 23 24 3 0
19 -30 -31 32 18 20 -22 23 -24 -3 0
19 -30 -31 32 18 20 -22 -23 24 -3 0
19 -30 -31 32 18 20 -22 -23 -24 -3 0
19 -30 -31 32 18 -20 22 23 24 3 0
19 -30 -31 32 18 -20 22 23 -24 -3 0
19 -30 -31 32 18 -20 22 -23 24 -3 0
19 -30 -31 32 18 -20 22 -23 -24 -3 0
19 -30 -31 32 18 -20 -22 23 24 -3 0
19 -30 -31 32 18 -20 -22 23 -24 -3 0
19 -30 -31 32 18 -20 -22 -23 24 -3 0
19 -30 -31 32 18 -20 -22 -23 -24 -3 0
19 -30 -31 32 -18 20 22 23 24 3 0
19 -30 -31 32 -18 20 22 23 -24 -3 0
19 -30 -31 32 -18 20 22 -23 24 -3 0
19 -30 -31 32 -18 20 22 -23 -24 -3 0
19 -30 -31 32 -18 20 -22 23 24 -3 0
19 -30 -31 32 -18 20 -22 23 -24 -3 0
19 -30 -31 32 -18 20 -22 -23 24 -3 0
19 -30 -31 32 -18 20 -22 -23 -24 -3 0
19 -30 -31 32 -18 -20 22 23 24 -3 0
19 -30 -31 32 -18 -20 22 23 -24 -3 0
19 -30 -31 32 -18 -20 22 -23 24 -3 0
19 -30 -31 32 -18 -20 22 -23 -24 -3 0
19 -30 -31 32 -18 -20 -22 23 24 -3 0
19 -30 -31 32 -18 -20 -22 23 -24 -3 0
19 -30 -31 32 -18 -20 -22 -23 24 -3 0
19 -30 -31 32 -18 -20 -22 -23 -24 -3 0
19 -30 -31 -32 18 20 22 23 24 3 0
19 -30 -31 -32 18 20 22 23 -24 -3 0
19 -30 -31 -32 18 20 22 -23 24 -3 0
19 -30 -31 -32 18 20 22 -23 -24 -3 0
19 -30 -31 -32 18 20 -22 23 24 -3 0
19 -30 -31 -32 18 20 -22 23 -24 -3 0
19 -30 -31 -32 18 20 -22 -23 24 -3 0
19 -30 -31 -32 18 20 -22 -23 -24 -3 0
19 -30 -31 -32 18 -20 22 23 24 -3 0
19 -30 -31 -32 18 -20 22 23 -24 -3 0
19 -30 -31 -32 18 -20 22 -23 24 -3 0
19 -30 -31 -32 18 -20 22 -23 -24 -3 0
19 -30 -31 -32 18 -20 -22 23 24 -3 0
19 -30 -31 -32 18 -20 -22 23 -24 -3 0
19 -30 -31 -32 18 -20 -22 -23 24 -3 0
19 -30 -31 -32 18 -20 -22 -23 -24 -3 0
19 -30 -31 -32 -18 20 22 23 24 -3 0
19 -30 -31 -32 -18 20 22 23 -24 -3 0
19 -30 -31 -32 -18 20 22 -23 24 -3 0
19 -30 -31 -32 -18 20 22 -23 -24 -3 0
19 -30 -31 -32 -18 20 -22 23 24 -3 0
19 -30 -31 -32 -18 20 -22 23 -24 -3 0
19 -30 -31 -32 -18 20 -22 -23 24 -3 0
19 -30 -31 -32 -18 20 -22 -23 -24 -3 0
19 -30 -31 -32 -18 -20 22 23 24 -3 0
19 -30 -31 -32 -18 -20 22 23 -24 -3 0
19 -30 -31 -32 -18 -20 22 -23 24 -3 0
19 -30 -31 -32 -18 -20 22 -23 -24 -3 0
19 -30 -31 -32 -18 -20 -22 23 24 -3 0
19 -30 -31 -32 -18 -20 -22 23 -24 -3 0
19 -30 -31 -32 -18 -20 -22 -23 24 -3 0
19 -30 -31 -32 -18 -20 -22 -23 -24 -3 0
-19 30 31 32 18 20 22 23 24 -3 0
-19 30 31 32 18 20 22 23 -24 -3 0
-19 30 31 32 18 20 22 -23 24 -3 0
-19 30 31 32 18 20 22 -23 -24 3 0
-19 30 31 32 18 20 -22 23 24 -3 0
-19 30 31 32 18 20 -22 23 -24 3 0
-19 30 31 32 18 20 -22 -23 24 3 0
-19 30 31 32 18 20 -22 -23 -24 3 0
-19 30 31 32 18 -20 22 23 24 -3 0
-19 30 31 32 18 -20 22 23 -24 3 0
-19 30 31 32 18 -20 22 -23 24 3 0
-19 30 31 32 18 -20 22 -23 -24 3 0
-19 30 31 32 18 -20 -22 23 24 3 0
-19 30 31 32 18 -20 -22 23 -24 3 0
-19 30 31 32 18 -20 -22 -23 24 3 0
-19 30 31 32 18 -20 -22 -23 -24 -3 0
-19 30 31 32 -18 20 22 23 24 -3 0
-19 30 31 32 -18 20 22 23 -24 3 0
-19 30 31 32 -18 20 22 -23 24 3 0
-19 30 31 32 -18 20 22 -23 -24 3 0
-19 30 31 32 -18 20 -22 23 24 3 0
-19 30 31 32 -18 20 -22 23 -24 3 0
-19 30 31 32 -18 20 -22 -23 24 3 0
-19 30 31 32 -18 20 -22 -23 -24 -3 0
-19 30 31 32 -18 -20 22 23 24 3 0
-19 30 31 32 -18 -20 22 23 -24 3 0
-19 30 31 32 -18 -20 22 -23 24 3 0
-19 30 31 32 -18 -20 22 -23 -24 -3 0
-19 30 31 32 -18 -20 -22 23 24 3 0
-19 30 31 32 -18 -20 -22 23 -24 -3 0
-19 30 31 32 -18 -20 -22 -23 24 -3 0
-19 30 31 32 -18 -20 -22 -23 -24 -3 0
-19 30 31 -32 18 20 22 23 24 -3 0
-19 30 31 -32 18 20 22 23 -24 3 0
-19 30 31 -32 18 20 22 -23 24 3 0
-19 30 31 -32 18 20 22 -23 -24 3 0
-19 30 31 -32 18 20 -22 23 24 3 0
-19 30 31 -32 18 20 -22 23 -24 3 0
-19 30 31 -32 18 20 -22 -23 24 3 0
-19 30 31 -32 18 20 -22 -23 -24 -3 0
-19 30 31 -32 18 -20 22 23 24 3 0
-19 30 31 -32 18 -20 22 23 -24 3 0
-19 30 31 -32 18 -20 22 -23 24 3 0
-19 30 31 -32 18 -20 22 -23 -24 -3 0
-19 30 31 -32 18 -20 -22 23 24 3 0
-19 30 31 -32 18 -20 -22 23 -24 -3 0
-19 30 31 -32 18 -20 -22 -23 24 -3 0
-19 30 31 -32 18 -20 -22 -23 -24 -3 0
-19 30 31 -32 -18 20 22 23 24 3 0
-19 30 31 -32 -18 20 22 23 -24 3 0
-19 30 31 -32 -18 20 22 -23 24 3 0
-19 30 31 -32 -18 20 22 -23 -24 -3 0
-19 30 31 -32 -18 20 -22 23 24 3 0
-19 30 31 -32 -18 20 -22 23 -24 -3 0
-19 30 31 -32 -18 20 -22 -23 24 -3 0
-19 30 31 -32 -18 20 -22 -23 -24 -3 0
-19 30 31 -32 -18 -20 22 23 24 3 0
-19 30 31 -32 -18 -20 22 23 -24 -3 0
-19 30 31 -32 -18 -20 22 -23 24 -3 0
-19 30 31 -32 -18 -20 22 -23 -24 -3 0
-19 30 31 -32 -18 -20 -22 23 24 -3 0
-19 30 31 -32 -18 -20 -22 23 -24 -3 0
-19 30 31 -32 -18 -20 -22 -23 24 -3 0
-19 30 31 -32 -18 -20 -22 -23 -24 -3 0
-19 30 -31 32 18 20 22 23 24 -3 0
-19 30 -31 32 18 20 22 23 -24 3 0
-19 30 -31 32 18 20 22 -23 24 3 0
-19 30 -31 32 18 20 22 -23 -24 3 0
-19 30 -31 32 18 20 -22 23 24 3 0
-19 30 -31 32 18 20 -22 23 -24 3 0
-19 30 -31 32 18 20 -22 -23 24 3 0
-19 30 -31 32 18 20 -22 -23 -24 -3 0
-19 30 -31 32 18 -20 22 23 24 3 0
-19 30 -31 32 18 -20 22 23 -24 3 0
-19 30 -31 32 18 -20 22 -23 24 3 0
-19 30 -31 32 18 -20 22 -23 -24 -3 0
-19 30 -31 32 18 -20 -22 23 24 3 0
-19 30 -31 32 18 -20 -22 23 -24 -3 0
-19 30 -31 32 18 -20 -22 -23 24 -3 0
-19 30 -31 32 18 -20 -22 -23 -24 -3 0
-19 30 -31 32 -18 20 22 23 24 3 0
-19 30 -31 32 -18 20 22 23 -24 3 0
-19 30 -31 32 -18 20 22 -23 24 3 0
-19 30 -31 32 -18 20 22 -23 -24 -3 0
-19 30 -31 32 -18 20 -22 23 24 3 0
-19 30 -31 32 -18 20 -22 23 -24 -3 0
-19 30 -31 32 -18 20 -22 -23 24 -3 0
-19 30 -31 32 -18 20 -22 -23 -24 -3 0
-19 30 -31 32 -18 -20 22 23 24 3 0
-19 30 -31 32 -18 -20 22 23 -24 -3 0
-19 30 -31 32 -18 -20 22 -23 24 -3 0
-19 30 -31 32 -18 -20 22 -23 -24 -3 0
-19 30 -31 32 -18 -20 -22 23 24 -3 0
-19 30 -31 32 -18 -20 -22 23 -24 -3 0
-19 30 -31 32 -18 -20 -22 -23 24 -3 0
-19 30 -31 32 -18 -20 -22 -23 -24 -3 0
-19 30 -31 -32 18 20 22 23 24 3 0
-19 30 -31 -32 18 20 22 23 -24 3 0
-19 30 -31 -32 18 20 22 -23 24 3 0
-19 30 -31 -32 18 20 22 -23 -24 -3 0
-19 30 -31 -32 18 20 -22 23 24 3 0
-19 30 -31 -32 18 20 -22 23 -24 -3 0
-19 30 -31 -32 18 20 -22 -23 24 -3 0
-19 30 -31 -32 18 20 -22 -23 -24 -3 0
-19 30 -31 -32 18 -20 22 23 24 3 0
-19 30 -31 -32 18 -20 22 23 -24 -3 0
-19 30 -31 -32 18 -20 22 -23 24 -3 0
-19 30 -31 -32 18 -20 22 -23 -24 -3 0
-19 30 -31 -32 18 -20 -22 23 24 -3 0
-19 30 -31 -32 18 -20 -22 23 -24 -3 0
-19 30 -31 -32 18 -20 -22 -23 24 -3 0
-19 30 -31 -32 18 -20 -22 -23 -24 -3 0
-19 30 -31 -32 -18 20 22 23 24 3 0
-19 30 -31 -32 -18 20 22 23 -24 -3 0
-19 30 -31 -32 -18 20 22 -23 24 -3 0
-19 30 -31 -32 -18 20 22 -23 -24 -3 0
-19 30 -31 -32 -18 20 -22 23 24 -3 0
-19 30 -31 -32 -18 20 -22 23 -24 -3 0
-19 30 -31 -32 -18 20 -22 -23 24 -3 0
-19 30 -31 -32 -18 20 -22 -23 -24 -3 0
-19 30 -31 -32 -18 -20 22 23 24 -3 0
-19 30 -31 -32 -18 -20 22 23 -24 -3 0
-19 30 -31 -32 -18 -20 22 -23 24 -3 0
-19 30 -31 -32 -18 -20 22 -23 -24 -3 0
-19 30 -31 -32 -18 -20 -22 23 24 -3 0
-19 30 -31 -32 -18 -20 -22 23 -24 -3 0
-19 30 -31 -32 -18 -20 -22 -23 24 -3 0
-19 30 -31 -32 -18 -20 -22 -23 -24 -3 0
-19 -30 31 32 18 20 22 23 24 -3 0
-19 -30 31 32 18 20 22 23 -24 3 0
-19 -30 31 32 18 20 22 -23 24 3 0
-19 -30 31 32 18 20 22 -23 -24 3 0
-19 -30 31 32 18 20 -22 23 24 3 0
-19 -30 31 32 18 20 -22 23 -24 3 0
-19 -30 31 32 18 20 -22 -23 24 3 0
-19 -30 31 32 18 20 -22 -23 -24 -3 0
-19 -30 31 32 18 -20 22 23 24 3 0
-19 -30 31 32 18 -20 22 23 -24 3 0
-19 -30 31 32 18 -20 22 -23 24 3 0
-19 -30 31 32 18 -20 22 -23 -24 -3 0
-19 -30 31 32 18 -20 -22 23 24 3 0
-19 -30 31 32 18 -20 -22 23 -24 -3 0
-19 -30 31 32 18 -20 -22 -23 24 -3 0
-19 -30 31 32 18 -20 -22 -23 -24 -3 0
-19 -30 31 32 -18 20 22 23 24 3 0
-19 -30 31 32 -18 20 22 23 -24 3 0
-19 -30 31 32 -18 20 22 -23 24 3 0
-19 -30 31 32 -18 20 22 -23 -24 -3 0
-19 -30 31 32 -18 20 -22 23 24 3 0
-19 -30 31 32 -18 20 -22 23 -24 -3 0
-19 -30 31 32 -18 20 -22 -23 24 -3 0
-19 -30 31 32 -18 20 -22 -23 -24 -3 0
-19 -30 31 32 -18 -20 22 23 24 3 0
-19 -30 31 32 -18 -20 22 23 -24 -3 0
-19 -30 31 32 -18 -20 22 -23 24 -3 0
-19 -30 31 32 -18 -20 22 -23 -24 -3 0
-19 -30 31 32 -18 -20 -22 23 24 -3 0
-19 -30 31 32 -18 -20 -22 23 -24 -3 0
-19 -30 31 32 -18 -20 -22 -23 24 -3 0
-19 -30 31 32 -18 -20 -22 -23 -24 -3 0
-19 -30 31 -32 18 20 22 23 24 3 0
-19 -30 31 -32 18 20 22 23 -24 3 0
-19 -30 31 -32 18 20 22 -23 24 3 0
-19 -30 31 -32 18 20 22 -23 -24 -3 0
-19 -30 31 -32 18 20 -22 23 24 3 0
-19 -30 31 -32 18 20 -22 23 -24 -3 0
-19 -30 31 -32 18 20 -22 -23 24 -3 0
-19 -30 31 -32 18 20 -22 -23 -24 -3 0
-19 -30 31 -32 18 -20 22 23 24 3 0
-19 -30 31 -32 18 -20 22 23 -24 -3 0
-19 -30 31 -32 18 -20 22 -23 24 -3 0
-19 -30 31 -32 18 -20 22 -23 -24 -3 0
-19 -30 31 -32 18 -20 -22 23 24 -3 0
-19 -30 31 -32 18 -20 -22 23 -24 -3 0
-19 -30 31 -32 18 -20 -22 -23 24 -3 0
-19 -30 31 -32 18 -20 -22 -23 -24 -3 0
-19 -30 31 -32 -18 20 22 23 24 3 0
-19 -30 31 -32 -18 20 22 23 -24 -3 0
-19 -30 31 -32 -18 20 22 -23 24 -3 0
-19 -30 31 -32 -18 20 22 -23 -24 -3 0
-19 -30 31 -32 -18 20 -22 23 24 -3 0
-19 -30 31 -32 -18 20 -22 23 -24 -3 0
-19 -30 31 -32 -18 20 -22 -23 24 -3 0
-19 -30 31 -32 -18 20 -22 -23 -24 -3 0
-19 -30 31 -32 -18 -20 22 23 24 -3 0
-19 -30 31 -32 -18 -20 22 23 -24 -3 0
-19 -30 31 -32 -18 -20 22 -23 24 -3 0
-19 -30 31 -32 -18 -20 22 -23 -24 -3 0
-19 -30 31 -32 -18 -20 -22 23 24 -3 0
-19 -30 31 -32 -18 -20 -22 23 -24 -3 0
-19 -30 31 -32 -18 -20 -22 -23 24 -3 0
-19 -30 31 -32 -18 -20 -22 -23 -24 -3 0
-19 -30 -31 32 18 20 22 23 24 3 0
-19 -30 -31 32 18 20 22 23 -24 3 0
-19 -30 -31 32 18 20 22 -23 24 3 0
-19 -30 -31 32 18 20 22 -23 -24 -3 0
-19 -30 -31 32 18 20 -22 23 24 3 0
-19 -30 -31 32 18 20 -22 23 -24 -3 0
-19 -30 -31 32 18 20 -22 -23 24 -3 0
-19 -30 -31 32 18 20 -22 -23 -24 -3 0
-19 -30 -31 32 18 -20 22 23 24 3 0
-19 -30 -31 32 18 -20 22 23 -24 -3 0
-19 -30 -31 32 18 -20 22 -23 24 -3 0
-19 -30 -31 32 18 -20 22 -23 -24 -3 0
-19 -30 -31 32 18 -20 -22 23 24 -3 0
-19 -30 -31 32 18 -20 -22 23 -24 -3 0
-19 -30 -31 32 18 -20 -22 -23 24 -3 0
-19 -30 -31 32 18 -20 -22 -23 -24 -3 0
-19 -30 -31 32 -18 20 22 23 24 3 0
-19 -30 -31 32 -18 20 22 23 -24 -3 0
-19 -30 -31 32 -18 20 22 -23 24 -3 0
-19 -30 -31 32 -18 20 22 -23 -24 -3 0
-19 -30 -31 32 -18 20 -22 23 24 -3 0
-19 -30 -31 32 -18 20 -22 23 -24 -3 0
-19 -30 -31 32 -18 20 -22 -23 24 -3 0
-19 -30 -31 32 -18 20 -22 -23 -24 -3 0
-19 -30 -31 32 -18 -20 22 23 24 -3 0
-19 -30 -31 32 -18 -20 22 23 -24 -3 0
-19 -30 -31 32 -18 -20 22 -23 24 -3 0
-19 -30 -31 32 -18 -20 22 -23 -24 -3 0
-19 -30 -31 32 -18 -20 -22 23 24 -3 0
-19 -30 -31 32 -18 -20 -22 23 -24 -3 0
-19 -30 -31 32 -18 -20 -22 -23 24 -3 0
-19 -30 -31 32 -18 -20 -22 -23 -24 -3 0
-19 -30 -31 -32 18 20 22 23 24 3 0
-19 -30 -31 -32 18 20 22 23 -24 -3 0
-19 -30 -31 -32 18 20 22 -23 24 -3 0
-19 -30 -31 -32 18 20 22 -23 -24 -3 0
-19 -30 -31 -32 18 20 -22 23 24 -3 0
-19 -30 -31 -32 18 20 -22 23 -24 -3 0
-19 -30 -31 -32 18 20 -22 -23 24 -3 0
-19 -30 -31 -32 18 20 -22 -23 -24 -3 0
-19 -30 -31 -32 18 -20 22 23 24 -3 0
-19 -30 -31 -32 18 -20 22 23 -24 -3 0
-19 -30 -31 -32 18 -20 22 -23 24 -3 0
-19 -30 -31 -32 18 -20 22 -23 -24 -3 0
-19 -30 -31 -32 18 -20 -22 23 24 -3 0
-19 -30 -31 -32 18 -20 -22 23 -24 -3 0
-19 -30 -31 -32 18 -20 -22 -23 24 -3 0
-19 -30 -31 -32 18 -20 -22 -23 -24 -3 0
-19 -30 -31 -32 -18 20 22 23 24 -3 0
-19 -30 -31 -32 -18 20 22 23 -24 -3 0
-19 -30 -31 -32 -18 20 22 -23 24 -3 0
-19 -30 -31 -32 -18 20 22 -23 -24 -3 0
-19 -30 -31 -32 -18 20 -22 23 24 -3 0
-19 -30 -31 -32 -18 20 -22 23 -24 -3 0
-19 -30 -31 -32 -18 20 -22 -23 24 -3 0
-19 -30 -31 -32 -18 20 -22 -23 -24 -3 0
-19 -30 -31 -32 -18 -20 22 23 24 -3 0
-19 -30 -31 -32 -18 -20 22 23 -24 -3 0
-19 -30 -31 -32 -18 -20 22 -23 24 -3 0
-19 -30 -31 -32 -18 -20 22 -23 -24 -3 0
-19 -30 -31 -32 -18 -20 -22 23 24 -3 0
-19 -30 -31 -32 -18 -20 -22 23 -24 -3 0
-19 -30 -31 -32 -18 -20 -22 -23 24 -3 0
-19 -30 -31 -32 -18 -20 -22 -23 -24 -3 0
20 31 32 29 19 17 23 24 21 -4 0
20 31 32 29 19 17 23 24 -21 -4 0
20 31 32 29 19 17 23 -24 21 -4 0
20 31 32 29 19 17 23 -24 -21 -4 0
20 31 32 29 19 17 -23 24 21 -4 0
20 31 32 29 19 17 -23 24 -21 -4 0
20 31 32 29 19 17 -23 -24 21 -4 0
20 31 32 29 19 17 -23 -24 -21 4 0
20 31 32 29 19 -17 23 24 21 -4 0
20 31 32 29 19 -17 23 24 -21 -4 0
20 31 32 29 19 -17 23 -24 21 -4 0
20 31 32 29 19 -17 23 -24 -21 4 0
20 31 32 29 19 -17 -23 24 21 -4 0
20 31 32 29 19 -17 -23 24 -21 4 0
20 31 32 29 19 -17 -23 -24 21 4 0
20 31 32 29 19 -17 -23 -24 -21 -4 0
20 31 32 29 -19 17 23 24 21 -4 0
20 31 32 29 -19 17 23 24 -21 -4 0
20 31 32 29 -19 17 23 -24 21 -4 0
20 31 32 29 -19 17 23 -24 -21 4 0
20 31 32 29 -19 17 -23 24 21 -4 0
20 31 32 29 -19 17 -23 24 -21 4 0
20 31 32 29 -19 17 -23 -24 21 4 0
20 31 32 29 -19 17 -23 -24 -21 -4 0
20 31 32 29 -19 -17 23 24 21 -4 0
20 31 32 29 -19 -17 23 24 -21 4 0
20 31 32 29 -19 -17 23 -24 21 4 0
20 31 32 29 -19 -17 23 -24 -21 -4 0
20 31 32 29 -19 -17 -23 24 21 4 0
20 31 32 29 -19 -17 -23 24 -21 -4 0
20 31 32 29 -19 -17 -23 -24 21 -4 0
20 31 32 29 -19 -17 -23 -24 -21 -4 0
20 31 32 -29 19 17 23 24 21 -4 0
20 31 32 -29 19 17 23 24 -21 -4 0
20 31 32 -29 19 17 23 -24 21 -4 0
20 31 32 -29 19 17 23 -24 -21 4 0
20 31 32 -29 19 17 -23 24 21 -4 0
20 31 32 -29 19 17 -23 24 -21 4 0
20 31 32 -29 19 17 -23 -24 21 4 0
20 31 32 -29 19 17 -23 -24 -21 -4 0
20 31 32 -29 19 -17 23 24 21 -4 0
20 31 32 -29 19 -17 23 24 -21 4 0
20 31 32 -29 19 -17 23 -24 21 4 0
20 31 32 -29 19 -17 23 -24 -21 -4 0
20 31 32 -29 19 -17 -23 24 21 4 0
20 31 32 -29 19 -17 -23 24 -21 -4 0
20 31 32 -29 19 -17 -23 -24 21 -4 0
20 31 32 -29 19 -17 -23 -24 -21 -4 0
20 31 32 -29 -19 17 23 24 21 -4 0
20 31 32 -29 -19 17 23 24 -21 4 0
20 31 32 -29 -19 17 23 -24 21 4 0
20 31 32 -29 -19 17 23 -24 -21 -4 0
20 31 32 -29 -19 17 -23 24 21 4 0
20 31 32 -29 -19 17 -23 24 -21 -4 0
20 31 32 -29 -19 17 -23 -24 21 -4 0
20 31 32 -29 -19 17 -23 -24 -21 -4 0
20 31 32 -29 -19 -17 23 24 21 4 0
20 31 32 -29 -19 -17 23 24 -21 -4 0
20 31 32 -29 -19 -17 23 -24 21 -4 0
20 31 32 -29 -19 -17 23 -24 -21 -4 0
20 31 32 -29 -19 -17 -23 24 21 -4 0
20 31 32 -29 -19 -17 -23 24 -21 -4 0
20 31 32 -29 -19 -17 -23 -24 21 -4 0
20 31 32 -29 -19 -17 -23 -24 -21 -4 0
20 31 -32 29 19 17 23 24 21 -4 0
20 31 -32 29 19 17 23 24 -21 -4 0
20 31 -32 29 19 17 23 -24 21 -4 0
20 31 -32 29 19 17 23 -24 -21 4 0
20 31 -32 29 19 17 -23 24 21 -4 0
20 31 -32 29 19 17 -23 24 -21 4 0
20 31 -32 29 19 17 -23 -24 21 4 0
20 31 -32 29 19 17 -23 -24 -21 -4 0
20 31 -32 29 19 -17 23 24 21 -4 0
20 31 -32 29 19 -17 23 24 -21 4 0
20 31 -32 29 19 -17 23 -24 21 4 0
20 31 -32 29 19 -17 23 -24 -21 -4 0
20 31 -32 29 19 -17 -23 24 21 4 0
20 31 -32 29 19 -17 -23 24 -21 -4 0
20 31 -32 29 19 -17 -23 -24 21 -4 0
20 31 -32 29 19 -17 -23 -24 -21 -4 0
20 31 -32 29 -19 17 23 24 21 -4 0
20 31 -32 29 -19 17 23 24 -21 4 0
20 31 -32 29 -19 17 23 -24 21 4 0
20 31 -32 29 -19 17 23 -24 -21 -4 0
20 31 -32 29 -19 17 -23 24 21 4 0
20 31 -32 29 -19 17 -23 24 -21 -4 0
20 31 -32 29 -19 17 -23 -24 21 -4 0
20 31 -32 29 -19 17 -23 -24 -21 -4 0
20 31 -32 29 -19 -17 23 24 21 4 0
20 31 -32 29 -19 -17 23 24 -21 -4 0
20 31 -32 29 -19 -17 23 -24 21 -4 0
20 31 -32 29 -19 -17 23 -24 -21 -4 0
20 31 -32 29 -19 -17 -23 24 21 -4 0
20 31 -32 29 -19 -17 -23 24 -21 -4 0
20 31 -32 29 -19 -17 -23 -24 21 -4 0
20 31 -32 29 -19 -17 -23 -24 -21 -4 0
20 31 -32 -29 19 17 23 24 21 -4 0
20 31 -32 -29 19 17 23 24 -21 4 0
20 31 -32 -29 19 17 23 -24 21 4 0
20 31 -32 -29 19 17 23 -24 -21 -4 0
20 31 -32 -29 19 17 -23 24 21 4 0
20 31 -32 -29 19 17 -23 24 -21 -4 0
20 31 -32 -29 19 17 -23 -24 21 -4 0
20 31 -32 -29 19 17 -23 -24 -21 -4 0
20 31 -32 -29 19 -17 23 24 21 4 0
20 31 -32 -29 19 -17 23 24 -21 -4 0
20 31 -32 -29 19 -17 23 -24 21 -4 0
20 31 -32 -29 19 -17 23 -24 -21 -4 0
20 31 -32 -29 19 -17 -23 24 21 -4 0
20 31 -32 -29 19 -17 -23 24 -21 -4 0
20 31 -32 -29 19 -17 -23 -24 21 -4 0
20 31 -32 -29 19 -17 -23 -24 -21 -4 0
20 31 -32 -29 -19 17 23 24 21 4 0
20 31 -32 -29 -19 17 23 24 -21 -4 0
20 31 -32 -29 -19 17 23 -24 21 -4 0
20 31 -32 -29 -19 17 23 -24 -21 -4 0
20 31 -32 -29 -19 17 -23 24 21 -4 0
20 31 -32 -29 -19 17 -23 24 -21 -4 0
20 31 -32 -29 -19 17 -23 -24 21 -4 0
20 31 -32 -29 -19 17 -23 -24 -21 -4 0
20 31 -32 -29 -19 -17 23 24 21 -4 0
20 31 -32 -29 -19 -17 23 24 -21 -4 0
20 31 -32 -29 -19 -17 23 -24 21 -4 0
20 31 -32 -29 -19 -17 23 -24 -21 -4 0
20 31 -32 -29 -19 -17 -23 24 21 -4 0
20 31 -32 -29 -19 -17 -23 24 -21 -4 0
20 31 -32 -29 -19 -17 -23 -24 21 -4 0
20 31 -32 -29 -19 -17 -23 -24 -21 -4 0
20 -31 32 29 19 17 23 24 21 -4 0
20 -31 32 29 19 17 23 24 -21 -4 0
20 -31 32 29 19 17 23 -24 21 -4 0
20 -31 32 29 19 17 23 -24 -21 4 0
20 -31 32 29 19 17 -23 24 21 -4 0
20 -31 32 29 19 17 -23 24 -21 4 0
20 -31 32 29 19 17 -23 -24 21 4 0
20 -31 32 29 19 17 -23 -24 -21 -4 0
20 -31 32 29 19 -17 23 24 21 -4 0
20 -31 32 29 19 -17 23 24 -21 4 0
20 -31 32 29 19 -17 23 -24 21 4 0
20 -31 32 29 19 -17 23 -24 -21 -4 0
20 -31 32 29 19 -17 -23 24 21 4 0
20 -31 32 29 19 -17 -23 24 -21 -4 0
20 -31 32 29 19 -17 -23 -24 21 -4 0
20 -31 32 29 19 -17 -23 -24 -21 -4 0
20 -31 32 29 -19 17 23 24 21 -4 0
20 -31 32 29 -19 17 23 24 -21 4 0
20 -31 32 29 -19 17 23 -24 21 4 0
20 -31 32 29 -19 17 23 -24 -21 -4 0
20 -31 32 29 -19 17 -23 24 21 4 0
20 -31 32 29 -19 17 -23 24 -21 -4 0
20 -31 32 29 -19 17 -23 -24 21 -4 0
20 -31 32 29 -19 17 -23 -24 -21 -4 0
20 -31 32 29 -19 -17 23 24 21 4 0
20 -31 32 29 -19 -17 23 24 -21 -4 0
20 -31 32 29 -19 -17 23 -24 21 -4 0
20 -31 32 29 -19 -17 23 -24 -21 -4 0
20 -31 32 29 -19 -17 -23 24 21 -4 0
20 -31 32 29 -19 -17 -23 24 -21 -4 0
20 -31 32 29 -19 -17 -23 -24 21 -4 0
20 -31 32 29 -19 -17 -23 -24 -21 -4 0
20 -31 32 -29 19 17 23 24 21 -4 0
20 -31 32 -29 19 17 23 24 -21 4 0
20 -31 32 -29 19 17 23 -24 21 4 0
20 -31 32 -29 19 17 23 -24 -21 -4 0
20 -31 32 -29 19 17 -23 24 21 4 0
20 -31 32 -29 19 17 -23 24 -21 -4 0
20 -31 32 -29 19 17 -23 -24 21 -4 0
20 -31 32 -29 19 17 -23 -24 -21 -4 0
20 -31 32 -29 19 -17 23 24 21 4 0
20 -31 32 -29 19 -17 23 24 -21 -4 0
20 -31 32 -29 19 -17 23 -24 21 -4 0
20 -31 32 -29 19 -17 23 -24 -21 -4 0
20 -31 32 -29 19 -17 -23 24 21 -4 0
20 -31 32 -29 19 -17 -23 24 -21 -4 0
20 -31 32 -29 19 -17 -23 -24 21 -4 0
20 -31 32 -29 19 -17 -23 -24 -21 -4 0
20 -31 32 -29 -19 17 23 24 21 4 0
20 -31 32 -29 -19 17 23 24 -21 -4 0
20 -31 32 -29 -19 17 23 -24 21 -4 0
20 -31 32 -29 -19 17 23 -24 -21 -4 0
20 -31 32 -29 -19 17 -23 24 21 -4 0
20 -31 32 -29 -19 17 -23 24 -21 -4 0
20 -31 32 -29 -19 17 -23 -24 21 -4 0
20 -31 32 -29 -19 17 -23 -24 -21 -4 0
20 -31 32 -29 -19 -17 23 24 21 -4 0
20 -31 32 -29 -19 -17 23 24 -21 -4 0
20 -31 32 -29 -19 -17 23 -24 21 -4 0
20 -31 32 -29 -19 -17 23 -24 -21 -4 0
20 -31 32 -29 -19 -17 -23 24 21 -4 0
20 -31 32 -29 -19 -17 -23 24 -21 -4 0
20 -31 32 -29 -19 -17 -23 -24 21 -4 0
20 -31 32 -29 -19 -17 -23 -24 -21 -4 0
20 -31 -32 29 19 17 23 24 21 -4 0
20 -31 -32 29 19 17 23 24 -21 4 0
20 -31 -32 29 19 17 23 -24 21 4 0
20 -31 -32 29 19 17 23 -24 -21 -4 0
20 -31 -32 29 19 17 -23 24 21 4 0
20 -31 -32 29 19 17 -23 24 -21 -4 0
20 -31 -32 29 19 17 -23 -24 21 -4 0
20 -31 -32 29 19 17 -23 -24 -21 -4 0
20 -31 -32 29 19 -17 23 24 21 4 0
20 -31 -32 29 19 -17 23 24 -21 -4 0
20 -31 -32 29 19 -17 23 -24 21 -4 0
20 -31 -32 29 19 -17 23 -24 -21 -4 0
20 -31 -32 29 19 -17 -23 24 21 -4 0
20 -31 -32 29 19 -17 -23 24 -21 -4 0
20 -31 -32 29 19 -17 -23 -24 21 -4 0
20 -31 -32 29 19 -17 -23 -24 -21 -4 0
20 -31 -32 29 -19 17 23 24 21 4 0
20 -31 -32 29 -19 17 23 24 -21 -4 0
20 -31 -32 29 -19 17 23 -24 21 -4 0
20 -31 -32 29 -19 17 23 -24 -21 -4 0
20 -31 -32 29 -19 17 -23 24 21 -4 0
20 -31 -32 29 -19 17 -23 24 -21 -4 0
20 -31 -32 29 -19 17 -23 -24 21 -4 0
20 -31 -32 29 -19 17 -23 -24 -21 -4 0
20 -31 -32 29 -19 -17 23 24 21 -4 0
20 -31 -32 29 -19 -17 23 24 -21 -4 0
20 -31 -32 29 -19 -17 23 -24 21 -4 0
20 -31 -32 29 -19 -17 23 -24 -21 -4 0
20 -31 -32 29 -19 -17 -23 24 21 -4 0
20 -31 -32 29 -19 -17 -23 24 -21 -4 0
20 -31 -32 29 -19 -17 -23 -24 21 -4 0
20 -31 -32 29 -19 -17 -23 -24 -21 -4 0
20 -31 -32 -29 19 17 23 24 21 4 0
20 -31 -32 -29 19 17 23 24 -21 -4 0
20 -31 -32 -29 19 17 23 -24 21 -4 0
20 -31 -32 -29 19 17 23 -24 -21 -4 0
20 -31 -32 -29 19 17 -23 24 21 -4 0
20 -31 -32 -29 19 17 -23 24 -21 -4 0
20 -31 -32 -29 19 17 -23 -24 21 -4 0
20 -31 -32 -29 19 17 -23 -24 -21 -4 0
20 -31 -32 -29 19 -17 23 24 21 -4 0
20 -31 -32 -29 19 -17 23 24 -21 -4 0
20 -31 -32 -29 19 -17 23 -24 21 -4 0
20 -31 -32 -29 19 -17 23 -24 -21 -4 0
20 -31 -32 -29 19 -17 -23 24 21 -4 0
20 -31 -32 -29 19 -17 -23 24 -21 -4 0
20 -31 -32 -29 19 -17 -23 -24 21 -4 0
20 -31 -32 -29 19 -17 -23 -24 -21 -4 0
20 -31 -32 -29 -19 17 23 24 21 -4 0
20 -31 -32 -29 -19 17 23 24 -21 -4 0
20 -31 -32 -29 -19 17 23 -24 21 -4 0
20 -31 -32 -29 -19 17 23 -24 -21 -4 0
20 -31 -32 -29 -19 17 -23 24 21 -4 0
20 -31 -32 -29 -19 17 -23 24 -21 -4 0
20 -31 -32 -29 -19 17 -23 -24 21 -4 0
20 -31 -32 -29 -19 17 -23 -24 -21 -4 0
20 -31 -32 -29 -19 -17 23 24 21 -4 0
20 -31 -32 -29 -19 -17 23 24 -21 -4 0
20 -31 -32 -29 -19 -17 23 -24 21 -4 0
20 -31 -32 -29 -19 -17 23 -24 -21 -4 0
20 -31 -32 -29 -19 -17 -23 24 21 -4 0
20 -31 -32 -29 -19 -17 -23 24 -21 -4 0
20 -31 -32 -29 -19 -17 -23 -24 21 -4 0
20 -31 -32 -29 -19 -17 -23 -24 -21 -4 0
-20 31 32 29 19 17 23 24 21 -4 0
-20 31 32 29 19 17 23 24 -21 -4 0
-20 31 32 29 19 17 23 -24 21 -4 0
-20 31 32 29 19 17 23 -24 -21 4 0
-20 31 32 29 19 17 -23 24 21 -4 0
-20 31 32 29 19 17 -23 24 -21 4 0
-20 31 32 29 19 17 -23 -24 21 4 0
-20 31 32 29 19 17 -23 -24 -21 4 0
-20 31 32 29 19 -17 23 24 21 -4 0
-20 31 32 29 19 -17 23 24 -21 4 0
-20 31 32 29 19 -17 23 -24 21 4 0
-20 31 32 29 19 -17 23 -24 -21 4 0
-20 31 32 29 19 -17 -23 24 21 4 0
-20 31 32 29 19 -17 -23 24 -21 4 0
-20 31 32 29 19 -17 -23 -24 21 4 0
-20 31 32 29 19 -17 -23 -24 -21 -4 0
-20 31 32 29 -19 17 23 24 21 -4 0
-20 31 32 29 -19 17 23 24 -21 4 0
-20 31 32 29 -19 17 23 -24 21 4 0
-20 31 32 29 -19 17 23 -24 -21 4 0
-20 31 32 29 -19 17 -23 24 21 4 0
-20 31 32 29 -19 17 -23 24 -21 4 0
-20 31 32 29 -19 17 -23 -24 21 4 0
-20 31 32 29 -19 17 -23 -24 -21 -4 0
-20 31 32 29 -19 -17 23 24 21 4 0
-20 31 32 29 -19 -17 23 24 -21 4 0
-20 31 32 29 -19 -17 23 -24 21 4 0
-20 31 32 29 -19 -17 23 -24 -21 -4 0
-20 31 32 29 -19 -17 -23 24 21 4 0
-20 31 32 29 -19 -17 -23 24 -21 -4 0
-20 31 32 29 -19 -17 -23 -24 21 -4 0
-20 31 32 29 -19 -17 -23 -24 -21 -4 0
-20 31 32 -29 19 17 23 24 21 -4 0
-20 31 32 -29 19 17 23 24 -21 4 0
-20 31 32 -29 19 17 23 -24 21 4 0
-20 31 32 -29 19 17 23 -24 -21 4 0
-20 31 32 -29 19 17 -23 24 21 4 0
-20 31 32 -29 19 17 -23 24 -21 4 0
-20 31 32 -29 19 17 -23 -24 21 4 0
-20 31 32 -29 19 17 -23 -24 -21 -4 0
-20 31 32 -29 19 -17 23 24 21 4 0
-20 31 32 -29 19 -17 23 24 -21 4 0
-20 31 32 -29 19 -17 23 -24 21 4 0
-20 31 32 -29 19 -17 23 -24 -21 -4 0
-20 31 32 -29 19 -17 -23 24 21 4 0
-20 31 32 -29 19 -17 -23 24 -21 -4 0
-20 31 32 -29 19 -17 -23 -24 21 -4 0
-20 31 32 -29 19 -17 -23 -24 -21 -4 0
-20 31 32 -29 -19 17 23 24 21 4 0
-20 31 32 -29 -19 17 23 24 -21 4 0
-20 31 32 -29 -19 17 23 -24 21 4 0
-20 31 32 -29 -19 17 23 -24 -21 -4 0
-20 31 32 -29 -19 17 -23 24 21 4 0
-20 31 32 -29 -19 17 -23 24 -21 -4 0
-20 31 32 -29 -19 17 -23 -24 21 -4 0
-20 31 32 -29 -19 17 -23 -24 -21 -4 0
-20 31 32 -29 -19 -17 23 24 21 4 0
-20 31 32 -29 -19 -17 23 24 -21 -4 0
-20 31 32 -29 -19 -17 23 -24 21 -4 0
-20 31 32 -29 -19 -17 23 -24 -21 -4 0
-20 31 32 -29 -19 -17 -23 24 21 -4 0
-20 31 32 -29 -19 -17 -23 24 -21 -4 0
-20 31 32 -29 -19 -17 -23 -24 21 -4 0
-20 31 32 -29 -19 -17 -23 -24 -21 -4 0
-20 31 -32 29 19 17 23 24 21 -4 0
-20 31 -32 29 19 17 23 24 -21 4 0
-20 31 -32 29 19 17 23 -24 21 4 0
-20 31 -32 29 19 17 23 -24 -21 4 0
-20 31 -32 29 19 17 -23 24 21 4 0
-20 31 -32 29 19 17 -23 24 -21 4 0
-20 31 -32 29 19 17 -23 -24 21 4 0
-20 31 -32 29 19 17 -23 -24 -21 -4 0
-20 31 -32 29 19 -17 23 24 21 4 0
-20 31 -32 29 19 -17 23 24 -21 4 0
-20 31 -32 29 19 -17 23 -24 21 4 0
-20 31 -32 29 19 -17 23 -24 -21 -4 0
-20 31 -32 29 19 -17 -23 24 21 4 0
-20 31 -32 29 19 -17 -23 24 -21 -4 0
-20 31 -32 29 19 -17 -23 -24 21 -4 0
-20 31 -32 29 19 -17 -23 -24 -21 -4 0
-20 31 -32 29 -19 17 23 24 21 4 0
-20 31 -32 29 -19 17 23 24 -21 4 0
-20 31 -32 29 -19 17 23 -24 21 4 0
-20 31 -32 29 -19 17 23 -24 -21 -4 0
-20 31 -32 29 -19 17 -23 24 21 4 0
-20 31 -32 29 -19 17 -23 24 -21 -4 0
-20 31 -32 29 -19 17 -23 -24 21 -4 0
-20 31 -32 29 -19 17 -23 -24 -21 -4 0
-20 31 -32 29 -19 -17 23 24 21 4 0
-20 31 -32 29 -19 -17 23 24 -21 -4 0
-20 31 -32 29 -19 -17 23 -24 21 -4 0
-20 31 -32 29 -19 -17 23 -24 -21 -4 0
-20 31 -32 29 -19 -17 -23 24 21 -4 0
-20 31 -32 29 -19 -17 -23 24 -21 -4 0
-20 31 -32 29 -19 -17 -23 -24 21 -4 0
-20 31 -32 29 -19 -17 -23 -24 -21 -4 0
-20 31 -32 -29 19 17 23 24 21 4 0
-20 31 -32 -29 19 17 23 24 -21 4 0
-20 31 -32 -29 19 17 23 -24 21 4 0
-20 31 -32 -29 19 17 23 -24 -21 -4 0
-20 31 -32 -29 19 17 -23 24 21 4 0
-20 31 -32 -29 19 17 -23 24 -21 -4 0
-20 31 -32 -29 19 17 -23 -24 21 -4 0
-20 31 -32 -29 19 17 -23 -24 -21 -4 0
-20 31 -32 -29 19 -17 23 24 21 4 0
-20 31 -32 -29 19 -17 23 24 -21 -4 0
-20 31 -32 -29 19 -17 23 -24 21 -4 0
-20 31 -32 -29 19 -17 23 -24 -21 -4 0
-20 31 -32 -29 19 -17 -23 24 21 -4 0
-20 31 -32 -29 19 -17 -23 24 -21 -4 0
-20 31 -32 -29 19 -17 -23 -24 21 -4 0
-20 31 -32 -29 19 -17 -23 -24 -21 -4 0
-20 31 -32 -29 -19 17 23 24 21 4 0
-20 31 -32 -29 -19 17 23 24 -21 -4 0
-20 31 -32 -29 -19 17 23 -24 21 -4 0
-20 31 -32 -29 -19 17 23 -24 -21 -4 0
-20 31 -32 -29 -19 17 -23 24 21 -4 0
-20 31 -32 -29 -19 17 -23 24 -21 -4 0
-20 31 -32 -29 -19 17 -23 -24 21 -4 0
-20 31 -32 -29 -19 17 -23 -24 -21 -4 0
-20 31 -32 -29 -19 -17 23 24 21 -4 0
-20 31 -32 -29 -19 -17 23 24 -21 -4 0
-20 31 -32 -29 -19 -17 23 -24 21 -4 0
-20 31 -32 -29 -19 -17 23 -24 -21 -4 0
-20 31 -32 -29 -19 -17 -23 24 21 -4 0
-20 31 -32 -29 -19 -17 -23 24 -21 -4 0
-20 31 -32 -29 -19 -17 -23 -24 21 -4 0
-20 31 -32 -29 -19 -17 -23 -24 -21 -4 0
-20 -31 32 29 19 17 23 24 21 -4 0
-20 -31 32 29 19 17 23 24 -21 4 0
-20 -31 32 29 19 17 23 -24 21 4 0
-20 -31 32 29 19 17 23 -24 -21 4 0
-20 -31 32 29 19 17 -23 24 21 4 0
-20 -31 32 29 19 17 -23 24 -21 4 0
-20 -31 32 29 19 17 -23 -24 21 4 0
-20 -31 32 29 19 17 -23 -24 -21 -4 0
-20 -31 32 29 19 -17 23 24 21 4 0
-20 -31 32 29 19 -17 23 24 -21 4 0
-20 -31 32 29 19 -17 23 -24 21 4 0
-20 -31 32 29 19 -17 23 -24 -21 -4 0
-20 -31 32 29 19 -17 -23 24 21 4 0
-20 -31 32 29 19 -17 -23 24 -21 -4 0
-20 -31 32 29 19 -17 -23 -24 21 -4 0
-20 -31 32 29 19 -17 -23 -24 -21 -4 0
-20 -31 32 29 -19 17 23 24 21 4 0
-20 -31 32 29 -19 17 23 24 -21 4 0
-20 -31 32 29 -19 17 23 -24 21 4 0
-20 -31 32 29 -19 17 23 -24 -21 -4 0
-20 -31 32 29 -19 17 -23 24 21 4 0
-20 -31 32 29 -19 17 -23 24 -21 -4 0
-20 -31 32 29 -19 17 -23 -24 21 -4 0
-20 -31 32 29 -19 17 -23 -24 -21 -4 0
-20 -31 32 29 -19 -17 23 24 21 4 0
-20 -31 32 29 -19 -17 23 24 -21 -4 0
-20 -31 32 29 -19 -17 23 -24 21 -4 0
-20 -31 32 29 -19 -17 23 -24 -21 -4 0
-20 -31 32 29 -19 -17 -23 24 21 -4 0
-20 -31 32 29 -19 -17 -23 24 -21 -4 0
-20 -31 32 29 -19 -17 -23 -24 21 -4 0
-20 -31 32 29 -19 -17 -23 -24 -21 -4 0
-20 -31 32 -29 19 17 23 24 21 4 0
-20 -31 32 -29 19 17 23 24 -21 4 0
-20 -31 32 -29 19 17 23 -24 21 4 0
-20 -31 32 -29 19 17 23 -24 -21 -4 0
-20 -31 32 -29 19 17 -23 24 21 4 0
-20 -31 32 -29 19 17 -23 24 -21 -4 0
-20 -31 32 -29 19 17 -23 -24 21 -4 0
-20 -31 32 -29 19 17 -23 -24 -21 -4 0
-20 -31 32 -29 19 -17 23 24 21 4 0
-20 -31 32 -29 19 -17 23 24 -21 -4 0
-20 -31 32 -29 19 -17 23 -24 21 -4 0
-20 -31 32 -29 19 -17 23 -24 -21 -4 0
-20 -31 32 -29 19 -17 -23 24 21 -4 0
-20 -31 32 -29 19 -17 -23 24 -21 -4 0
-20 -31 32 -29 19 -17 -23 -24 21 -4 0
-20 -31 32 -29 19 -17 -23 -24 -21 -4 0
-20 -31 32 -29 -19 17 23 24 21 4 0
-20 -31 32 -29 -19 17 23 24 -21 -4 0
-20 -31 32 -29 -19 17 23 -24 21 -4 0
-20 -31 32 -29 -19 17 23 -24 -21 -4 0
-20 -31 32 -29 -19 17 -23 24 21 -4 0
-20 -31 32 -29 -19 17 -23 24 -21 -4 0
-20 -31 32 -29 -19 17 -23 -24 21 -4 0
-20 -31 32 -29 -19 17 -23 -24 -21 -4 0
-20 -31 32 -29 -19 -17 23 24 21 -4 0
-20 -31 32 -29 -19 -17 23 24 -21 -4 0
-20 -31 32 -29 -19 -17 23 -24 21 -4 0
-20 -31 32 -29 -19 -17 23 -24 -21 -4 0
-20 -31 32 -29 -19 -17 -23 24 21 -4 0
-20 -31 32 -29 -19 -17 -23 24 -21 -4 0
-20 -31 32 -29 -19 -17 -23 -24 21 -4 0
-20 -31 32 -29 -19 -17 -23 -24 -21 -4 0
-20 -31 -32 29 19 17 23 24 21 4 0
-20 -31 -32 29 19 17 23 24 -21 4 0
-20 -31 -32 29 19 17 23 -24 21 4 0
-20 -31 -32 29 19 17 23 -24 -21 -4 0
-20 -31 -32 29 19 17 -23 24 21 4 0
-20 -31 -32 29 19 17 -23 24 -21 -4 0
-20 -31 -32 29 19 17 -23 -24 21 -4 0
-20 -31 -32 29 19 17 -23 -24 -21 -4 0
-20 -31 -32 29 19 -17 23 24 21 4 0
-20 -31 -32 29 19 -17 23 24 -21 -4 0
-20 -31 -32 29 19 -17 23 -24 21 -4 0
-20 -31 -32 29 19 -17 23 -24 -21 -4 0
-20 -31 -32 29 19 -17 -23 24 21 -4 0
-20 -31 -32 29 19 -17 -23 24 -21 -4 0
-20 -31 -32 29 19 -17 -23 -24 21 -4 0
-20 -31 -32 29 19 -17 -23 -24 -21 -4 0
-20 -31 -32 29 -19 17 23 24 21 4 0
-20 -31 -32 29 -19 17 23 24 -21 -4 0
-20 -31 -32 29 -19 17 23 -24 21 -4 0
-20 -31 -32 29 -19 17 23 -24 -21 -4 0
-20 -31 -32 29 -19 17 -23 24 21 -4 0
-20 -31 -32 29 -19 17 -23 24 -21 -4 0
-20 -31 -32 29 -19 17 -23 -24 21 -4 0
-20 -31 -32 29 -19 17 -23 -24 -21 -4 0
-20 -31 -32 29 -19 -17 23 24 21 -4 0
-20 -31 -32 29 -19 -17 23 24 -21 -4 0
-20 -31 -32 29 -19 -17 23 -24 21 -4 0
-20 -31 -32 29 -19 -17 23 -24 -21 -4 0
-20 -31 -32 29 -19 -17 -23 24 21 -4 0
-20 -31 -32 29 -19 -17 -23 24 -21 -4 0
-20 -31 -32 29 -19 -17 -23 -24 21 -4 0
-20 -31 -32 29 -19 -17 -23 -24 -21 -4 0
-20 -31 -32 -29 19 17 23 24 21 4 0
-20 -31 -32 -29 19 17 23 24 -21 -4 0
-20 -31 -32 -29 19 17 23 -24 21 -4 0
-20 -31 -32 -29 19 17 23 -24 -21 -4 0
-20 -31 -32 -29 19 17 -23 24 21 -4 0
-20 -31 -32 -29 19 17 -23 24 -21 -4 0
-20 -31 -32 -29 19 17 -23 -24 21 -4 0
-20 -31 -32 -29 19 17 -23 -24 -21 -4 0
-20 -31 -32 -29 19 -17 23 24 21 -4 0
-20 -31 -32 -29 19 -17 23 24 -21 -4 0
-20 -31 -32 -29 19 -17 23 -24 21 -4 0
-20 -31 -32 -29 19 -17 23 -24 -21 -4 0
-20 -31 -32 -29 19 -17 -23 24 21 -4 0
-20 -31 -32 -29 19 -17 -23 24 -21 -4 0
-20 -31 -32 -29 19 -17 -23 -24 21 -4 0
-20 -31 -32 -29 19 -17 -23 -24 -21 -4 0
-20 -31 -32 -29 -19 17 23 24 21 -4 0
-20 -31 -32 -29 -19 17 23 24 -21 -4 0
-20 -31 -32 -29 -19 17 23 -24 21 -4 0
-20 -31 -32 -29 -19 17 23 -24 -21 -4 0
-20 -31 -32 -29 -19 17 -23 24 21 -4 0
-20 -31 -32 -29 -19 17 -23 24 -21 -4 0
-20 -31 -32 -29 -19 17 -23 -24 21 -4 0
-20 -31 -32 -29 -19 17 -23 -24 -21 -4 0
-20 -31 -32 -29 -19 -17 23 24 21 -4 0
-20 -31 -32 -29 -19 -17 23 24 -21 -4 0
-20 -31 -32 -29 -19 -17 23 -24 21 -4 0
-20 -31 -32 -29 -19 -17 23 -24 -21 -4 0
-20 -31 -32 -29 -19 -17 -23 24 21 -4 0
-20 -31 -32 -29 -19 -17 -23 24 -21 -4 0
-20 -31 -32 -29 -19 -17 -23 -24 21 -4 0
-20 -31 -32 -29 -19 -17 -23 -24 -21 -4 0
21 20 17 18 24 22 28 25 26 -5 0
21 20 17 18 24 22 28 25 -26 -5 0
21 20 17 18 24 22 28 -25 26 -5 0
21 20 17 18 24 22 28 -25 -26 -5 0
21 20 17 18 24 22 -28 25 26 -5 0
21 20 17 18 24 22 -28 25 -26 -5 0
21 20 17 18 24 22 -28 -25 26 -5 0
21 20 17 18 24 22 -28 -25 -26 5 0
21 20 17 18 24 -22 28 25 26 -5 0
21 20 17 18 24 -22 28 25 -26 -5 0
21 20 17 18 24 -22 28 -25 26 -5 0
21 20 17 18 24 -22 28 -25 -26 5 0
21 20 17 18 24 -22 -28 25 26 -5 0
21 20 17 18 24 -22 -28 25 -26 5 0
21 20 17 18 24 -22 -28 -25 26 5 0
21 20 17 18 24 -22 -28 -25 -26 -5 0
21 20 17 18 -24 22 28 25 26 -5 0
21 20 17 18 -24 22 28 25 -26 -5 0
21 20 17 18 -24 22 28 -25 26 -5 0
21 20 17 18 -24 22 28 -25 -26 5 0
21 20 17 18 -24 22 -28 25 26 -5 0
21 20 17 18 -24 22 -28 25 -26 5 0
21 20 17 18 -24 22 -28 -25 26 5 0
21 20 17 18 -24 22 -28 -25 -26 -5 0
21 20 17 18 -24 -22 28 25 26 -5 0
21 20 17 18 -24 -22 28 25 -26 5 0
21 20 17 18 -24 -22 28 -25 26 5 0
21 20 17 18 -24 -22 28 -25 -26 -5 0
21 20 17 18 -24 -22 -28 25 26 5 0
21 20 17 18 -24 -22 -28 25 -26 -5 0
21 20 17 18 -24 -22 -28 -25 26 -5 0
21 20 17 18 -24 -22 -28 -25 -26 -5 0
21 20 17 -18 24 22 28 25 26 -5 0
21 20 17 -18 24 22 28 25 -26 -5 0
21 20 17 -18 24 22 28 -25 26 -5 0
21 20 17 -18 24 22 28 -25 -26 5 0
21 20 17 -18 24 22 -28 25 26 -5 0
21 20 17 -18 24 22 -28 25 -26 5 0
21 20 17 -18 24 22 -28 -25 26 5 0
21 20 17 -18 24 22 -28 -25 -26 -5 0
21 20 17 -18 24 -22 28 25 26 -5 0
21 20 17 -18 24 -22 28 25 -26 5 0
21 20 17 -18 24 -22 28 -25 26 5 0
21 20 17 -18 24 -22 28 -25 -26 -5 0
21 20 17 -18 24 -22 -28 25 26 5 0
21 20 17 -18 24 -22 -28 25 -26 -5 0
21 20 17 -18 24 -22 -28 -25 26 -5 0
21 20 17 -18 24 -22 -28 -25 -26 -5 0
21 20 17 -18 -24 22 28 25 26 -5 0
21 20 17 -18 -24 22 28 25 -26 5 0
21 20 17 -18 -24 22 28 -25 26 5 0
21 20 17 -18 -24 22 28 -25 -26 -5 0
21 20 17 -18 -24 22 -28 25 26 5 0
21 20 17 -18 -24 22 -28 25 -26 -5 0
21 20 17 -18 -24 22 -28 -25 26 -5 0
21 20 17 -18 -24 22 -28 -25 -26 -5 0
21 20 17 -18 -24 -22 28 25 26 5 0
21 20 17 -18 -24 -22 28 25 -26 -5 0
21 20 17 -18 -24 -22 28 -25 26 -5 0
21 20 17 -18 -24 -22 28 -25 -26 -5 0
21 20 17 -18 -24 -22 -28 25 26 -5 0
21 20 17 -18 -24 -22 -28 25 -26 -5 0
21 20 17 -18 -24 -22 -28 -25 26 -5 0
21 20 17 -18 -24 -22 -28 -25 -26 -5 0
21 20 -17 18 24 22 28 25 26 -5 0
21 20 -17 18 24 22 28 25 -26 -5 0
21 20 -17 18 24 22 28 -25 26 -5 0
21 20 -17 18 24 22 28 -25 -26 5 0
21 20 -17 18 24 22 -28 25 26 -5 0
21 20 -17 18 24 22 -28 25 -26 5 0
21 20 -17 18 24 22 -28 -25 26 5 0
21 20 -17 18 24 22 -28 -25 -26 -5 0
21 20 -17 18 24 -22 28 25 26 -5 0
21 20 -17 18 24 -22 28 25 -26 5 0
21 20 -17 18 24 -22 28 -25 26 5 0
21 20 -17 18 24 -22 28 -25 -26 -5 0
21 20 -17 18 24 -22 -28 25 26 5 0
21 20 -17 18 24 -22 -28 25 -26 -5 0
21 20 -17 18 24 -22 -28 -25 26 -5 0
21 20 -17 18 24 -22 -28 -25 -26 -5 0
21 20 -17 18 -24 22 28 25 26 -5 0
21 20 -17 18 -24 22 28 25 -26 5 0
21 20 -17 18 -24 22 28 -25 26 5 0
21 20 -17 18 -24 22 28 -25 -26 -5 0
21 20 -17 18 -24 22 -28 25 26 5 0
21 20 -17 18 -24 22 -28 25 -26 -5 0
21 20 -17 18 -24 22 -28 -25 26 -5 0
21 20 -17 18 -24 22 -28 -25 -26 -5 0
21 20 -17 18 -24 -22 28 25 26 5 0
21 20 -17 18 -24 -22 28 25 -26 -5 0
21 20 -17 18 -24 -22 28 -25 26 -5 0
21 20 -17 18 -24 -22 28 -25 -26 -5 0
21 20 -17 18 -24 -22 -28 25 26 -5 0
21 20 -17 18 -24 -22 -28 25 -26 -5 0
21 20 -17 18 -24 -22 -28 -25 26 -5 0
21 20 -17 18 -24 -22 -28 -25 -26 -5 0
21 20 -17 -18 24 22 28 25 26 -5 0
21 20 -17 -18 24 22 28 25 -26 5 0
21 20 -17 -18 24 22 28 -25 26 5 0
21 20 -17 -18 24 22 28 -25 -26 -5 0
21 20 -17 -18 24 22 -28 25 26 5 0
21 20 -17 -18 24 22 -28 25 -26 -5 0
21 20 -17 -18 24 22 -28 -25 26 -5 0
21 20 -17 -18 24 22 -28 -25 -26 -5 0
21 20 -17 -18 24 -22 28 25 26 5 0
21 20 -17 -18 24 -22 28 25 -26 -5 0
21 20 -17 -18 24 -22 28 -25 26 -5 0
21 20 -17 -18 24 -22 28 -25 -26 -5 0
21 20 -17 -18 24 -22 -28 25 26 -5 0
21 20 -17 -18 24 -22 -28 25 -26 -5 0
21 20 -17 -18 24 -22 -28 -25 26 -5 0
21 20 -17 -18 24 -22 -28 -25 -26 -5 0
21 20 -17 -18 -24 22 28 25 26 5 0
21 20 -17 -18 -24 22 28 25 -26 -5 0
21 20 -17 -18 -24 22 28 -25 26 -5 0
21 20 -17 -18 -24 22 28 -25 -26 -5 0
21 20 -17 -18 -24 22 -28 25 26 -5 0
21 20 -17 -18 -24 22 -28 25 -26 -5 0
21 20 -17 -18 -24 22 -28 -25 26 -5 0
21 20 -17 -18 -24 22 -28 -25 -26 -5 0
21 20 -17 -18 -24 -22 28 25 26 -5 0
21 20 -17 -18 -24 -22 28 25 -26 -5 0
21 20 -17 -18 -24 -22 28 -25 26 -5 0
21 20 -17 -18 -24 -22 28 -25 -26 -5 0
21 20 -17 -18 -24 -22 -28 25 26 -5 0
21 20 -17 -18 -24 -22 -28 25 -26 -5 0
21 20 -17 -18 -24 -22 -28 -25 26 -5 0
21 20 -17 -18 -24 -22 -28 -25 -26 -5 0
21 -20 17 18 24 22 28 25 26 -5 0
21 -20 17 18 24 22 28 25 -26 -5 0
21 -20 17 18 24 22 28 -25 26 -5 0
21 -20 17 18 24 22 28 -25 -26 5 0
21 -20 17 18 24 22 -28 25 26 -5 0
21 -20 17 18 24 22 -28 25 -26 5 0
21 -20 17 18 24 22 -28 -25 26 5 0
21 -20 17 18 24 22 -28 -25 -26 -5 0
21 -20 17 18 24 -22 28 25 26 -5 0
21 -20 17 18 24 -22 28 25 -26 5 0
21 -20 17 18 24 -22 28 -25 26 5 0
21 -20 17 18 24 -22 28 -25 -26 -5 0
21 -20 17 18 24 -22 -28 25 26 5 0
21 -20 17 18 24 -22 -28 25 -26 -5 0
21 -20 17 18 24 -22 -28 -25 26 -5 0
21 -20 17 18 24 -22 -28 -25 -26 -5 0
21 -20 17 18 -24 22 28 25 26 -5 0
21 -20 17 18 -24 22 28 25 -26 5 0
21 -20 17 18 -24 22 28 -25 26 5 0
21 -20 17 18 -24 22 28 -25 -26 -5 0
21 -20 17 18 -24 22 -28 25 26 5 0
21 -20 17 18 -24 22 -28 25 -26 -5 0
21 -20 17 18 -24 22 -28 -25 26 -5 0
21 -20 17 18 -24 22 -28 -25 -26 -5 0
21 -20 17 18 -24 -22 28 25 26 5 0
21 -20 17 18 -24 -22 28 25 -26 -5 0
21 -20 17 18 -24 -22 28 -25 26 -5 0
21 -20 17 18 -24 -22 28 -25 -26 -5 0
21 -20 17 18 -24 -22 -28 25 26 -5 0
21 -20 17 18 -24 -22 -28 25 -26 -5 0
21 -20 17 18 -24 -22 -28 -25 26 -5 0
21 -20 17 18 -24 -22 -28 -25 -26 -5 0
21 -20 17 -18 24 22 28 25 26 -5 0
21 -20 17 -18 24 22 28 25 -26 5 0
21 -20 17 -18 24 22 28 -25 26 5 0
21 -20 17 -18 24 22 28 -25 -26 -5 0
21 -20 17 -18 24 22 -28 25 26 5 0
21 -20 17 -18 24 22 -28 25 -26 -5 0
21 -20 17 -18 24 22 -28 -25 26 -5 0
21 -20 17 -18 24 22 -28 -25 -26 -5 0
21 -20 17 -18 24 -22 28 25 26 5 0
21 -20 17 -18 24 -22 28 25 -26 -5 0
21 -20 17 -18 24 -22 28 -25 26 -5 0
21 -20 17 -18 24 -22 28 -25 -26 -5 0
21 -20 17 -18 24 -22 -28 25 26 -5 0
21 -20 17 -18 24 -22 -28 25 -26 -5 0
21 -20 17 -18 24 -22 -28 -25 26 -5 0
21 -20 17 -18 24 -22 -28 -25 -26 -5 0
21 -20 17 -18 -24 22 28 25 26 5 0
21 -20 17 -18 -24 22 28 25 -26 -5 0
21 -20 17 -18 -24 22 28 -25 26 -5 0
21 -20 17 -18 -24 22 28 -25 -26 -5 0
21 -20 17 -18 -24 22 -28 25 26 -5 0
21 -20 17 -18 -24 22 -28 25 -26 -5 0
21 -20 17 -18 -24 22 -28 -25 26 -5 0
21 -20 17 -18 -24 22 -28 -25 -26 -5 0
21 -20 17 -18 -24 -22 28 25 26 -5 0
21 -20 17 -18 -24 -22 28 25 -26 -5 0
21 -20 17 -18 -24 -22 28 -25 26 -5 0
21 -20 17 -18 -24 -22 28 -25 -26 -5 0
21 -20 17 -18 -24 -22 -28 25 26 -5 0
21 -20 17 -18 -24 -22 -28 25 -26 -5 0
21 -20 17 -18 -24 -22 -28 -25 26 -5 0
21 -20 17 -18 -24 -22 -28 -25 -26 -5 0
21 -20 -17 18 24 22 28 25 26 -5 0
21 -20 -17 18 24 22 28 25 -26 5 0
21 -20 -17 18 24 22 28 -25 26 5 0
21 -20 -17 18 24 22 28 -25 -26 -5 0
21 -20 -17 18 24 22 -28 25 26 5 0
21 -20 -17 18 24 22 -28 25 -26 -5 0
21 -20 -17 18 24 22 -28 -25 26 -5 0
21 -20 -17 18 24 22 -28 -25 -26 -5 0
21 -20 -17 18 24 -22 28 25 26 5 0
21 -20 -17 18 24 -22 28 25 -26 -5 0
21 -20 -17 18 24 -22 28 -25 26 -5 0
21 -20 -17 18 24 -22 28 -25 -26 -5 0
21 -20 -17 18 24 -22 -28 25 26 -5 0
21 -20 -17 18 24 -22 -28 25 -26 -5 0
21 -20 -17 18 24 -22 -28 -25 26 -5 0
21 -20 -17 18 24 -22 -28 -25 -26 -5 0
21 -20 -17 18 -24 22 28 25 26 5 0
21 -20 -17 18 -24 22 28 25 -26 -5 0
21 -20 -17 18 -24 22 28 -25 26 -5 0
21 -20 -17 18 -24 22 28 -25 -26 -5 0
21 -20 -17 18 -24 22 -28 25 26 -5 0
21 -20 -17 18 -24 22 -28 25 -26 -5 0
21 -20 -17 18 -24 22 -28 -25 26 -5 0
21 -20 -17 18 -24 22 -28 -25 -26 -5 0
21 -20 -17 18 -24 -22 28 25 26 -5 0
21 -20 -17 18 -24 -22 28 25 -26 -5 0
21 -20 -17 18 -24 -22 28 -25 26 -5 0
21 -20 -17 18 -24 -22 28 -25 -26 -5 0
21 -20 -17 18 -24 -22 -28 25 26 -5 0
21 -20 -17 18 -24 -22 -28 25 -26 -5 0
21 -20 -17 18 -24 -22 -28 -25 26 -5 0
21 -20 -17 18 -24 -22 -28 -25 -26 -5 0
21 -20 -17 -18 24 22 28 25 26 5 0
21 -20 -17 -18 24 22 28 25 -26 -5 0
21 -20 -17 -18 24 22 28 -25 26 -5 0
21 -20 -17 -18 24 22 28 -25 -26 -5 0
21 -20 -17 -18 24 22 -28 25 26 -5 0
21 -20 -17 -18 24 22 -28 25 -26 -5 0
21 -20 -17 -18 24 22 -28 -25 26 -5 0
21 -20 -17 -18 24 22 -28 -25 -26 -5 0
21 -20 -17 -18 24 -22 28 25 26 -5 0
21 -20 -17 -18 24 -22 28 25 -26 -5 0
21 -20 -17 -18 24 -22 28 -25 26 -5 0
21 -20 -17 -18 24 -22 28 -25 -26 -5 0
21 -20 -17 -18 24 -22 -28 25 26 -5 0
21 -20 -17 -18 24 -22 -28 25 -26 -5 0
21 -20 -17 -18 24 -22 -28 -25 26 -5 0
21 -20 -17 -18 24 -22 -28 -25 -26 -5 0
21 -20 -17 -18 -24 22 28 25 26 -5 0
21 -20 -17 -18 -24 22 28 25 -26 -5 0
21 -20 -17 -18 -24 22 28 -25 26 -5 0
21 -20 -17 -18 -24 22 28 -25 -26 -5 0
21 -20 -17 -18 -24 22 -28 25 26 -5 0
21 -20 -17 -18 -24 22 -28 25 -26 -5 0
21 -20 -17 -18 -24 22 -28 -25 26 -5 0
21 -20 -17 -18 -24 22 -28 -25 -26 -5 0
21 -20 -17 -18 -24 -22 28 25 26 -5 0
21 -20 -17 -18 -24 -22 28 25 -26 -5 0
21 -20 -17 -18 -24 -22 28 -25 26 -5 0
21 -20 -17 -18 -24 -22 28 -25 -26 -5 0
21 -20 -17 -18 -24 -22 -28 25 26 -5 0
21 -20 -17 -18 -24 -22 -28 25 -26 -5 0
21 -20 -17 -18 -24 -22 -28 -25 26 -5 0
21 -20 -17 -18 -24 -22 -28 -25 -26 -5 0
-21 20 17 18 24 22 28 25 26 -5 0
-21 20 17 18 24 22 28 25 -26 -5 0
-21 20 17 18 24 22 28 -25 26 -5 0
-21 20 17 18 24 22 28 -25 -26 5 0
-21 20 17 18 24 22 -28 25 26 -5 0
-21 20 17 18 24 22 -28 25 -26 5 0
-21 20 17 18 24 22 -28 -25 26 5 0
-21 20 17 18 24 22 -28 -25 -26 5 0
-21 20 17 18 24 -22 28 25 26 -5 0
-21 20 17 18 24 -22 28 25 -26 5 0
-21 20 17 18 24 -22 28 -25 26 5 0
-21 20 17 18 24 -22 28 -25 -26 5 0
-21 20 17 18 24 -22 -28 25 26 5 0
-21 20 17 18 24 -22 -28 25 -26 5 0
-21 20 17 18 24 -22 -28 -25 26 5 0
-21 20 17 18 24 -22 -28 -25 -26 -5 0
-21 20 17 18 -24 22 28 25 26 -5 0
-21 20 17 18 -24 22 28 25 -26 5 0
-21 20 17 18 -24 22 28 -25 26 5 0
-21 20 17 18 -24 22 28 -25 -26 5 0
-21 20 17 18 -24 22 -28 25 26 5 0
-21 20 17 18 -24 22 -28 25 -26 5 0
-21 20 17 18 -24 22 -28 -25 26 5 0
-21 20 17 18 -24 22 -28 -25 -26 -5 0
-21 20 17 18 -24 -22 28 25 26 5 0
-21 20 17 18 -24 -22 28 25 -26 5 0
-21 20 17 18 -24 -22 28 -25 26 5 0
-21 20 17 18 -24 -22 28 -25 -26 -5 0
-21 20 17 18 -24 -22 -28 25 26 5 0
-21 20 17 18 -24 -22 -28 25 -26 -5 0
-21 20 17 18 -24 -22 -28 -25 26 -5 0
-21 20 17 18 -24 -22 -28 -25 -26 -5 0
-21 20 17 -18 24 22 28 25 26 -5 0
-21 20 17 -18 24 22 28 25 -26 5 0
-21 20 17 -18 24 22 28 -25 26 5 0
-21 20 17 -18 24 22 28 -25 -26 5 0
-21 20 17 -18 24 22 -28 25 26 5 0
-21 20 17 -18 24 22 -28 25 -26 5 0
-21 20 17 -18 24 22 -28 -25 26 5 0
-21 20 17 -18 24 22 -28 -25 -26 -5 0
-21 20 17 -18 24 -22 28 25 26 5 0
-21 20 17 -18 24 -22 28 25 -26 5 0
-21 20 17 -18 24 -22 28 -25 26 5 0
-21 20 17 -18 24 -22 28 -25 -26 -5 0
-21 20 17 -18 24 -22 -28 25 26 5 0
-21 20 17 -18 24 -22 -28 25 -26 -5 0
-21 20 17 -18 24 -22 -28 -25 26 -5 0
-21 20 17 -18 24 -22 -28 -25 -26 -5 0
-21 20 17 -18 -24 22 28 25 26 5 0
-21 20 17 -18 -24 22 28 25 -26 5 0
-21 20 17 -18 -24 22 28 -25 26 5 0
-21 20 17 -18 -24 22 28 -25 -26 -5 0
-21 20 17 -18 -24 22 -28 25 26 5 0
-21 20 17 -18 -24 22 -28 25 -26 -5 0
-21 20 17 -18 -24 22 -28 -25 26 -5 0
-21 20 17 -18 -24 22 -28 -25 -26 -5 0
-21 20 17 -18 -24 -22 28 25 26 5 0
-21 20 17 -18 -24 -22 28 25 -26 -5 0
-21 20 17 -18 -24 -22 28 -25 26 -5 0
-21 20 17 -18 -24 -22 28 -25 -26 -5 0
-21 20 17 -18 -24 -22 -28 25 26 -5 0
-21 20 17 -18 -24 -22 -28 25 -26 -5 0
-21 20 17 -18 -24 -22 -28 -25 26 -5 0
-21 20 17 -18 -24 -22 -28 -25 -26 -5 0
-21 20 -17 18 24 22 28 25 26 -5 0
-21 20 -17 18 24 22 28 25 -26 5 0
-21 20 -17 18 24 22 28 -25 26 5 0
-21 20 -17 18 24 22 28 -25 -26 5 0
-21 20 -17 18 24 22 -28 25 26 5 0
-21 20 -17 18 24 22 -28 25 -26 5 0
-21 20 -17 18 24 22 -28 -25 26 5 0
-21 20 -17 18 24 22 -28 -25 -26 -5 0
-21 20 -17 18 24 -22 28 25 26 5 0
-21 20 -17 18 24 -22 28 25 -26 5 0
-21 20 -17 18 24 -22 28 -25 26 5 0
-21 20 -17 18 24 -22 28 -25 -26 -5 0
-21 20 -17 18 24 -22 -28 25 26 5 0
-21 20 -17 18 24 -22 -28 25 -26 -5 0
-21 20 -17 18 24 -22 -28 -25 26 -5 0
-21 20 -17 18 24 -22 -28 -25 -26 -5 0
-21 20 -17 18 -24 22 28 25 26 5 0
-21 20 -17 18 -24 22 28 25 -26 5 0
-21 20 -17 18 -24 22 28 -25 26 5 0
-21 20 -17 18 -24 22 28 -25 -26 -5 0
-21 20 -17 18 -24 22 -28 25 26 5 0
-21 20 -17 18 -24 22 -28 25 -26 -5 0
-21 20 -17 18 -24 22 -28 -25 26 -5 0
-21 20 -17 18 -24 22 -28 -25 -26 -5 0
-21 20 -17 18 -24 -22 28 25 26 5 0
-21 20 -17 18 -24 -22 28 25 -26 -5 0
-21 20 -17 18 -24 -22 28 -25 26 -5 0
-21 20 -17 18 -24 -22 28 -25 -26 -5 0
-21 20 -17 18 -24 -22 -28 25 26 -5 0
-21 20 -17 18 -24 -22 -28 25 -26 -5 0
-21 20 -17 18 -24 -22 -28 -25 26 -5 0
-21 20 -17 18 -24 -22 -28 -25 -26 -5 0
-21 20 -17 -18 24 22 28 25 26 5 0
-21 20 -17 -18 24 22 28 25 -26 5 0
-21 20 -17 -18 24 22 28 -25 26 5 0
-21 20 -17 -18 24 22 28 -25 -26 -5 0
-21 20 -17 -18 24 22 -28 25 26 5 0
-21 20 -17 -18 24 22 -28 25 -26 -5 0
-21 20 -17 -18 24 22 -28 -25 26 -5 0
-21 20 -17 -18 24 22 -28 -25 -26 -5 0
-21 20 -17 -18 24 -22 28 25 26 5 0
-21 20 -17 -18 24 -22 28 25 -26 -5 0
-21 20 -17 -18 24 -22 28 -25 26 -5 0
-21 20 -17 -18 24 -22 28 -25 -26 -5 0
-21 20 -17 -18 24 -22 -28 25 26 -5 0
-21 20 -17 -18 24 -22 -28 25 -26 -5 0
-21 20 -17 -18 24 -22 -28 -25 26 -5 0
-21 20 -17 -18 24 -22 -28 -25 -26 -5 0
-21 20 -17 -18 -24 22 28 25 26 5 0
-21 20 -17 -18 -24 22 28 25 -26 -5 0
-21 20 -17 -18 -24 22 28 -25 26 -5 0
-21 20 -17 -18 -24 22 28 -25 -26 -5 0
-21 20 -17 -18 -24 22 -28 25 26 -5 0
-21 20 -17 -18 -24 22 -28 25 -26 -5 0
-21 20 -17 -18 -24 22 -28 -25 26 -5 0
-21 20 -17 -18 -24 22 -28 -25 -26 -5 0
-21 20 -17 -18 -24 -22 28 25 26 -5 0
-21 20 -17 -18 -24 -22 28 25 -26 -5 0
-21 20 -17 -18 -24 -22 28 -25 26 -5 0
-21 20 -17 -18 -24 -22 28 -25 -26 -5 0
-21 20 -17 -18 -24 -22 -28 25 26 -5 0
-21 20 -17 -18 -24 -22 -28 25 -26 -5 0
-21 20 -17 -18 -24 -22 -28 -25 26 -5 0
-21 20 -17 -18 -24 -22 -28 -25 -26 -5 0
-21 -20 17 18 24 22 28 25 26 -5 0
-21 -20 17 18 24 22 28 25 -26 5 0
-21 -20 17 18 24 22 28 -25 26 5 0
-21 -20 17 18 24 22 28 -25 -26 5 0
-21 -20 17 18 24 22 -28 25 26 5 0
-21 -20 17 18 24 22 -28 25 -26 5 0
-21 -20 17 18 24 22 -28 -25 26 5 0
-21 -20 17 18 24 22 -28 -25 -26 -5 0
-21 -20 17 18 24 -22 28 25 26 5 0
-21 -20 17 18 24 -22 28 25 -26 5 0
-21 -20 17 18 24 -22 28 -25 26 5 0
-21 -20 17 18 24 -22 28 -25 -26 -5 0
-21 -20 17 18 24 -22 -28 25 26 5 0
-21 -20 17 18 24 -22 -28 25 -26 -5 0
-21 -20 17 18 24 -22 -28 -25 26 -5 0
-21 -20 17 18 24 -22 -28 -25 -26 -5 0
-21 -20 17 18 -24 22 28 25 26 5 0
-21 -20 17 18 -24 22 28 25 -26 5 0
-21 -20 17 18 -24 22 28 -25 26 5 0
-21 -20 17 18 -24 22 28 -25 -26 -5 0
-21 -20 17 18 -24 22 -28 25 26 5 0
-21 -20 17 18 -24 22 -28 25 -26 -5 0
-21 -20 17 18 -24 22 -28 -25 26 -5 0
-21 -20 17 18 -24 22 -28 -25 -26 -5 0
-21 -20 17 18 -24 -22 28 25 26 5 0
-21 -20 17 18 -24 -22 28 25 -26 -5 0
-21 -20 17 18 -24 -22 28 -25 26 -5 0
-21 -20 17 18 -24 -22 28 -25 -26 -5 0
-21 -20 17 18 -24 -22 -28 25 26 -5 0
-21 -20 17 18 -24 -22 -28 25 -26 -5 0
-21 -20 17 18 -24 -22 -28 -25 26 -5 0
-21 -20 17 18 -24 -22 -28 -25 -26 -5 0
-21 -20 17 -18 24 22 28 25 26 5 0
-21 -20 17 -18 24 22 28 25 -26 5 0
-21 -20 17 -18 24 22 28 -25 26 5 0
-21 -20 17 -18 24 22 28 -25 -26 -5 0
-21 -20 17 -18 24 22 -28 25 26 5 0
-21 -20 17 -18 24 22 -28 25 -26 -5 0
-21 -20 17 -18 24 22 -28 -25 26 -5 0
-21 -20 17 -18 24 22 -28 -25 -26 -5 0
-21 -20 17 -18 24 -22 28 25 26 5 0
-21 -20 17 -18 24 -22 28 25 -26 -5 0
-21 -20 17 -18 24 -22 28 -25 26 -5 0
-21 -20 17 -18 24 -22 28 -25 -26 -5 0
-21 -20 17 -18 24 -22 -28 25 26 -5 0
-21 -20 17 -18 24 -22 -28 25 -26 -5 0
-21 -20 17 -18 24 -22 -28 -25 26 -5 0
-21 -20 17 -18 24 -22 -28 -25 -26 -5 0
-21 -20 17 -18 -24 22 28 25 26 5 0
-21 -20 17 -18 -24 22 28 25 -26 -5 0
-21 -20 17 -18 -24 22 28 -25 26 -5 0
-21 -20 17 -18 -24 22 28 -25 -26 -5 0
-21 -20 17 -18 -24 22 -28 25 26 -5 0
-21 -20 17 -18 -24 22 -28 25 -26 -5 0
-21 -20 17 -18 -24 22 -28 -25 26 -5 0
-21 -20 17 -18 -24 22 -28 -25 -26 -5 0
-21 -20 17 -18 -24 -22 28 25 26 -5 0
-21 -20 17 -18 -24 -22 28 25 -26 -5 0
-21 -20 17 -18 -24 -22 28 -25 26 -5 0
-21 -20 17 -18 -24 -22 28 -25 -26 -5 0
-21 -20 17 -18 -24 -22 -28 25 26 -5 0
-21 -20 17 -18 -24 -22 -28 25 -26 -5 0
-21 -20 17 -18 -24 -22 -28 -25 26 -5 0
-21 -20 17 -18 -24 -22 -28 -25 -26 -5 0
-21 -20 -17 18 24 22 28 25 26 5 0
-21 -20 -17 18 24 22 28 25 -26 5 0
-21 -20 -17 18 24 22 28 -25 26 5 0
-21 -20 -17 18 24 22 28 -25 -26 -5 0
-21 -20 -17 18 24 22 -28 25 26 5 0
-21 -20 -17 18 24 22 -28 25 -26 -5 0
-21 -20 -17 18 24 22 -28 -25 26 -5 0
-21 -20 -17 18 24 22 -28 -25 -26 -5 0
-21 -20 -17 18 24 -22 28 25 26 5 0
-21 -20 -17 18 24 -22 28 25 -26 -5 0
-21 -20 -17 18 24 -22 28 -25 26 -5 0
-21 -20 -17 18 24 -22 28 -25 -26 -5 0
-21 -20 -17 18 24 -22 -28 25 26 -5 0
-21 -20 -17 18 24 -22 -28 25 -26 -5 0
-21 -20 -17 18 24 -22 -28 -25 26 -5 0
-21 -20 -17 18 24 -22 -28 -25 -26 -5 0
-21 -20 -17 18 -24 22 28 25 26 5 0
-21 -20 -17 18 -24 22 28 25 -26 -5 0
-21 -20 -17 18 -24 22 28 -25 26 -5 0
-21 -20 -17 18 -24 22 28 -25 -26 -5 0
-21 -20 -17 18 -24 22 -28 25 26 -5 0
-21 -20 -17 18 -24 22 -28 25 -26 -5 0
-21 -20 -17 18 -24 22 -28 -25 26 -5 0
-21 -20 -17 18 -24 22 -28 -25 -26 -5 0
-21 -20 -17 18 -24 -22 28 25 26 -5 0
-21 -20 -17 18 -24 -22 28 25 -26 -5 0
-21 -20 -17 18 -24 -22 28 -25 26 -5 0
-21 -20 -17 18 -24 -22 28 -25 -26 -5 0
-21 -20 -17 18 -24 -22 -28 25 26 -5 0
-21 -20 -17 18 -24 -22 -28 25 -26 -5 0
-21 -20 -17 18 -24 -22 -28 -25 26 -5 0
-21 -20 -17 18 -24 -22 -28 -25 -26 -5 0
-21 -20 -17 -18 24 22 28 25 26 5 0
-21 -20 -17 -18 24 22 28 25 -26 -5 0
-21 -20 -17 -18 24 22 28 -25 26 -5 0
-21 -20 -17 -18 24 22 28 -25 -26 -5 0
-21 -20 -17 -18 24 22 -28 25 26 -5 0
-21 -20 -17 -18 24 22 -28 25 -26 -5 0
-21 -20 -17 -18 24 22 -28 -25 26 -5 0
-21 -20 -17 -18 24 22 -28 -25 -26 -5 0
-21 -20 -17 -18 24 -22 28 25 26 -5 0
-21 -20 -17 -18 24 -22 28 25 -26 -5 0
-21 -20 -17 -18 24 -22 28 -25 26 -5 0
-21 -20 -17 -18 24 -22 28 -25 -26 -5 0
-21 -20 -17 -18 24 -22 -28 25 26 -5 0
-21 -20 -17 -18 24 -22 -28 25 -26 -5 0
-21 -20 -17 -18 24 -22 -28 -25 26 -5 0
-21 -20 -17 -18 24 -22 -28 -25 -26 -5 0
-21 -20 -17 -18 -24 22 28 25 26 -5 0
-21 -20 -17 -18 -24 22 28 25 -26 -5 0
-21 -20 -17 -18 -24 22 28 -25 26 -5 0
-21 -20 -17 -18 -24 22 28 -25 -26 -5 0
-21 -20 -17 -18 -24 22 -28 25 26 -5 0
-21 -20 -17 -18 -24 22 -28 25 -26 -5 0
-21 -20 -17 -18 -24 22 -28 -25 26 -5 0
-21 -20 -17 -18 -24 22 -28 -25 -26 -5 0
-21 -20 -17 -18 -24 -22 28 25 26 -5 0
-21 -20 -17 -18 -24 -22 28 25 -26 -5 0
-21 -20 -17 -18 -24 -22 28 -25 26 -5 0
-21 -20 -17 -18 -24 -22 28 -25 -26 -5 0
-21 -20 -17 -18 -24 -22 -28 25 26 -5 0
-21 -20 -17 -18 -24 -22 -28 25 -26 -5 0
-21 -20 -17 -18 -24 -22 -28 -25 26 -5 0
-21 -20 -17 -18 -24 -22 -28 -25 -26 -5 0
22 17 18 19 21 23 25 26 27 -6 0
22 17 18 19 21 23 25 26 -27 -6 0
22 17 18 19 21 23 25 -26 27 -6 0
22 17 18 19 21 23 25 -26 -27 -6 0
22 17 18 19 21 23 -25 26 27 -6 0
22 17 18 19 21 23 -25 26 -27 -6 0
22 17 18 19 21 23 -25 -26 27 -6 0
22 17 18 19 21 23 -25 -26 -27 6 0
22 17 18 19 21 -23 25 26 27 -6 0
22 17 18 19 21 -23 25 26 -27 -6 0
22 17 18 19 21 -23 25 -26 27 -6 0
22 17 18 19 21 -23 25 -26 -27 6 0
22 17 18 19 21 -23 -25 26 27 -6 0
22 17 18 19 21 -23 -25 26 -27 6 0
22 17 18 19 21 -23 -25 -26 27 6 0
22 17 18 19 21 -23 -25 -26 -27 -6 0
22 17 18 19 -21 23 25 26 27 -6 0
22 17 18 19 -21 23 25 26 -27 -6 0
22 17 18 19 -21 23 25 -26 27 -6 0
22 17 18 19 -21 23 25 -26 -27 6 0
22 17 18 19 -21 23 -25 26 27 -6 0
22 17 18 19 -21 23 -25 26 -27 6 0
22 17 18 19 -21 23 -25 -26 27 6 0
22 17 18 19 -21 23 -25 -26 -27 -6 0
22 17 18 19 -21 -23 25 26 27 -6 0
22 17 18 19 -21 -23 25 26 -27 6 0
22 17 18 19 -21 -23 25 -26 27 6 0
22 17 18 19 -21 -23 25 -26 -27 -6 0
22 17 18 19 -21 -23 -25 26 27 6 0
22 17 18 19 -21 -23 -25 26 -27 -6 0
22 17 18 19 -21 -23 -25 -26 27 -6 0
22 17 18 19 -21 -23 -25 -26 -27 -6 0
22 17 18 -19 21 23 25 26 27 -6 0
22 17 18 -19 21 23 25 26 -27 -6 0
22 17 18 -19 21 23 25 -26 27 -6 0
22 17 18 -19 21 23 25 -26 -27 6 0
22 17 18 -19 21 23 -25 26 27 -6 0
22 17 18 -19 21 23 -25 26 -27 6 0
22 17 18 -19 21 23 -25 -26 27 6 0
22 17 18 -19 21 23 -25 -26 -27 -6 0
22 17 18 -19 21 -23 25 26 27 -6 0
22 17 18 -19 21 -23 25 26 -27 6 0
22 17 18 -19 21 -23 25 -26 27 6 0
22 17 18 -19 21 -23 25 -26 -27 -6 0
22 17 18 -19 21 -23 -25 26 27 6 0
22 17 18 -19 21 -23 -25 26 -27 -6 0
22 17 18 -19 21 -23 -25 -26 27 -6 0
22 17 18 -19 21 -23 -25 -26 -27 -6 0
22 17 18 -19 -21 23 25 26 27 -6 0
22 17 18 -19 -21 23 25 26 -27 6 0
22 17 18 -19 -21 23 25 -26 27 6 0
22 17 18 -19 -21 23 25 -26 -27 -6 0
22 17 18 -19 -21 23 -25 26 27 6 0
22 17 18 -19 -21 23 -25 26 -27 -6 0
22 17 18 -19 -21 23 -25 -26 27 -6 0
22 17 18 -19 -21 23 -25 -26 -27 -6 0
22 17 18 -19 -21 -23 25 26 27 6 0
22 17 18 -19 -21 -23 25 26 -27 -6 0
22 17 18 -19 -21 -23 25 -26 27 -6 0
22 17 18 -19 -21 -23 25 -26 -27 -6 0
22 17 18 -19 -21 -23 -25 26 27 -6 0
22 17 18 -19 -21 -23 -25 26 -27 -6 0
22 17 18 -19 -21 -23 -25 -26 27 -6 0
22 17 18 -19 -21 -23 -25 -26 -27 -6 0
22 17 -18 19 21 23 25 26 27 -6 0
22 17 -18 19 21 23 25 26 -27 -6 0
22 17 -18 19 21 23 25 -26 27 -6 0
22 17 -18 19 21 23 25 -26 -27 6 0
22 17 -18 19 21 23 -25 26 27 -6 0
22 17 -18 19 21 23 -25 26 -27 6 0
22 17 -18 19 21 23 -25 -26 27 6 0
22 17 -18 19 21 23 -25 -26 -27 -6 0
22 17 -18 19 21 -23 25 26 27 -6 0
22 17 -18 19 21 -23 25 26 -27 6 0
22 17 -18 19 21 -23 25 -26 27 6 0
22 17 -18 19 21 -23 25 -26 -27 -6 0
22 17 -18 19 21 -23 -25 26 27 6 0
22 17 -18 19 21 -23 -25 26 -27 -6 0
22 17 -18 19 21 -23 -25 -26 27 -6 0
22 17 -18 19 21 -23 -25 -26 -27 -6 0
22 17 -18 19 -21 23 25 26 27 -6 0
22 17 -18 19 -21 23 25 26 -27 6 0
22 17 -18 19 -21 23 25 -26 27 6 0
22 17 -18 19 -21 23 25 -26 -27 -6 0
22 17 -18 19 -21 23 -25 26 27 6 0
22 17 -18 19 -21 23 -25 26 -27 -6 0
22 17 -18 19 -21 23 -25 -26 27 -6 0
22 17 -18 19 -21 23 -25 -26 -27 -6 0
22 17 -18 19 -21 -23 25 26 27 6 0
22 17 -18 19 -21 -23 25 26 -27 -6 0
22 17 -18 19 -21 -23 25 -26 27 -6 0
22 17 -18 19 -21 -23 25 -26 -27 -6 0
22 17 -18 19 -21 -23 -25 26 27 -6 0
22 17 -18 19 -21 -23 -25 26 -27 -6 0
22 17 -18 19 -21 -23 -25 -26 27 -6 0
22 17 -18 19 -21 -23 -25 -26 -27 -6 0
22 17 -18 -19 21 23 25 26 27 -6 0
22 17 -18 -19 21 23 25 26 -27 6 0
22 17 -18 -19 21 23 25 -26 27 6 0
22 17 -18 -19 21 23 25 -26 -27 -6 0
22 17 -18 -19 21 23 -25 26 27 6 0
22 17 -18 -19 21 23 -25 26 -27 -6 0
22 17 -18 -19 21 23 -25 -26 27 -6 0
22 17 -18 -19 21 23 -25 -26 -27 -6 0
22 17 -18 -19 21 -23 25 26 27 6 0
22 17 -18 -19 21 -23 25 26 -27 -6 0
22 17 -18 -19 21 -23 25 -26 27 -6 0
22 17 -18 -19 21 -23 25 -26 -27 -6 0
22 17 -18 -19 21 -23 -25 26 27 -6 0
22 17 -18 -19 21 -23 -25 26 -27 -6 0
22 17 -18 -19 21 -23 -25 -26 27 -6 0
22 17 -18 -19 21 -23 -25 -26 -27 -6 0
22 17 -18 -19 -21 23 25 26 27 6 0
22 17 -18 -19 -21 23 25 26 -27 -6 0
22 17 -18 -19 -21 23 25 -26 27 -6 0
22 17 -18 -19 -21 23 25 -26 -27 -6 0
22 17 -18 -19 -21 23 -25 26 27 -6 0
22 17 -18 -19 -21 23 -25 26 -27 -6 0
22 17 -18 -19 -21 23 -25 -26 27 -6 0
22 17 -18 -19 -21 23 -25 -26 -27 -6 0
22 17 -18 -19 -21 -23 25 26 27 -6 0
22 17 -18 -19 -21 -23 25 26 -27 -6 0
22 17 -18 -19 -21 -23 25 -26 27 -6 0
22 17 -18 -19 -21 -23 25 -26 -27 -6 0
22 17 -18 -19 -21 -23 -25 26 27 -6 0
22 17 -18 -19 -21 -23 -25 26 -27 -6 0
22 17 -18 -19 -21 -23 -25 -26 27 -6 0
22 17 -18 -19 -21 -23 -25 -26 -27 -6 0
22 -17 18 19 21 23 25 26 27 -6 0
22 -17 18 19 21 23 25 26 -27 -6 0
22 -17 18 19 21 23 25 -26 27 -6 0
22 -17 18 19 21 23 25 -26 -27 6 0
22 -17 18 19 21 23 -25 26 27 -6 0
22 -17 18 19 21 23 -25 26 -27 6 0
22 -17 18 19 21 23 -25 -26 27 6 0
22 -17 18 19 21 23 -25 -26 -27 -6 0
22 -17 18 19 21 -23 25 26 27 -6 0
22 -17 18 19 21 -23 25 26 -27 6 0
22 -17 18 19 21 -23 25 -26 27 6 0
22 -17 18 19 21 -23 25 -26 -27 -6 0
22 -17 18 19 21 -23 -25 26 27 6 0
22 -17 18 19 21 -23 -25 26 -27 -6 0
22 -17 18 19 21 -23 -25 -26 27 -6 0
22 -17 18 19 21 -23 -25 -26 -27 -6 0
22 -17 18 19 -21 23 25 26 27 -6 0
22 -17 18 19 -21 23 25 26 -27 6 0
22 -17 18 19 -21 23 25 -26 27 6 0
22 -17 18 19 -21 23 25 -26 -27 -6 0
22 -17 18 19 -21 23 -25 26 27 6 0
22 -17 18 19 -21 23 -25 26 -27 -6 0
22 -17 18 19 -21 23 -25 -26 27 -6 0
22 -17 18 19 -21 23 -25 -26 -27 -6 0
22 -17 18 19 -21 -23 25 26 27 6 0
22 -17 18 19 -21 -23 25 26 -27 -6 0
22 -17 18 19 -21 -23 25 -26 27 -6 0
22 -17 18 19 -21 -23 25 -26 -27 -6 0
22 -17 18 19 -21 -23 -25 26 27 -6 0
22 -17 18 19 -21 -23 -25 26 -27 -6 0
22 -17 18 19 -21 -23 -25 -26 27 -6 0
22 -17 18 19 -21 -23 -25 -26 -27 -6 0
22 -17 18 -19 21 23 25 26 27 -6 0
22 -17 18 -19 21 23 25 26 -27 6 0
22 -17 18 -19 21 23 25 -26 27 6 0
22 -17 18 -19 21 23 25 -26 -27 -6 0
22 -17 18 -19 21 23 -25 26 27 6 0
22 -17 18 -19 21 23 -25 26 -27 -6 0
22 -17 18 -19 21 23 -25 -26 27 -6 0
22 -17 18 -19 21 23 -25 -26 -27 -6 0
22 -17 18 -19 21 -23 25 26 27 6 0
22 -17 18 -19 21 -23 25 26 -27 -6 0
22 -17 18 -19 21 -23 25 -26 27 -6 0
22 -17 18 -19 21 -23 25 -26 -27 -6 0
22 -17 18 -19 21 -23 -25 26 27 -6 0
22 -17 18 -19 21 -23 -25 26 -27 -6 0
22 -17 18 -19 21 -23 -25 -26 27 -6 0
22 -17 18 -19 21 -23 -25 -26 -27 -6 0
22 -17 18 -19 -21 23 25 26 27 6 0
22 -17 18 -19 -21 23 25 26 -27 -6 0
22 -17 18 -19 -21 23 25 -26 27 -6 0
22 -17 18 -19 -21 23 25 -26 -27 -6 0
22 -17 18 -19 -21 23 -25 26 27 -6 0
22 -17 18 -19 -21 23 -25 26 -27 -6 0
22 -17 18 -19 -21 23 -25 -26 27 -6 0
22 -17 18 -19 -21 23 -25 -26 -27 -6 0
22 -17 18 -19 -21 -23 25 26 27 -6 0
22 -17 18 -19 -21 -23 25 26 -27 -6 0
22 -17 18 -19 -21 -23 25 -26 27 -6 0
22 -17 18 -19 -21 -23 25 -26 -27 -6 0
22 -17 18 -19 -21 -23 -25 26 27 -6 0
22 -17 18 -19 -21 -23 -25 26 -27 -6 0
22 -17 18 -19 -21 -23 -25 -26 27 -6 0
22 -17 18 -19 -21 -23 -25 -26 -27 -6 0
22 -17 -18 19 21 23 25 26 27 -6 0
22 -17 -18 19 21 23 25 26 -27 6 0
22 -17 -18 19 21 23 25 -26 27 6 0
22 -17 -18 19 21 23 25 -26 -27 -6 0
22 -17 -18 19 21 23 -25 26 27 6 0
22 -17 -18 19 21 23 -25 26 -27 -6 0
22 -17 -18 19 21 23 -25 -26 27 -6 0
22 -17 -18 19 21 23 -25 -26 -27 -6 0
22 -17 -18 19 21 -23 25 26 27 6 0
22 -17 -18 19 21 -23 25 26 -27 -6 0
22 -17 -18 19 21 -23 25 -26 27 -6 0
22 -17 -18 19 21 -23 25 -26 -27 -6 0
22 -17 -18 19 21 -23 -25 26 27 -6 0
22 -17 -18 19 21 -23 -25 26 -27 -6 0
22 -17 -18 19 21 -23 -25 -26 27 -6 0
22 -17 -18 19 21 -23 -25 -26 -27 -6 0
22 -17 -18 19 -21 23 25 26 27 6 0
22 -17 -18 19 -21 23 25 26 -27 -6 0
22 -17 -18 19 -21 23 25 -26 27 -6 0
22 -17 -18 19 -21 23 25 -26 -27 -6 0
22 -17 -18 19 -21 23 -25 26 27 -6 0
22 -17 -18 19 -21 23 -25 26 -27 -6 0
22 -17 -18 19 -21 23 -25 -26 27 -6 0
22 -17 -18 19 -21 23 -25 -26 -27 -6 0
22 -17 -18 19 -21 -23 25 26 27 -6 0
22 -17 -18 19 -21 -23 25 26 -27 -6 0
22 -17 -18 19 -21 -23 25 -26 27 -6 0
22 -17 -18 19 -21 -23 25 -26 -27 -6 0
22 -17 -18 19 -21 -23 -25 26 27 -6 0
22 -17 -18 19 -21 -23 -25 26 -27 -6 0
22 -17 -18 19 -21 -23 -25 -26 27 -6 0
22 -17 -18 19 -21 -23 -25 -26 -27 -6 0
22 -17 -18 -19 21 23 25 26 27 6 0
22 -17 -18 -19 21 23 25 26 -27 -6 0
22 -17 -18 -19 21 23 25 -26 27 -6 0
22 -17 -18 -19 21 23 25 -26 -27 -6 0
22 -17 -18 -19 21 23 -25 26 27 -6 0
22 -17 -18 -19 21 23 -25 26 -27 -6 0
22 -17 -18 -19 21 23 -25 -26 27 -6 0
22 -17 -18 -19 21 23 -25 -26 -27 -6 0
22 -17 -18 -19 21 -23 25 26 27 -6 0
22 -17 -18 -19 21 -23 25 26 -27 -6 0
22 -17 -18 -19 21 -23 25 -26 27 -6 0
22 -17 -18 -19 21 -23 25 -26 -27 -6 0
22 -17 -18 -19 21 -23 -25 26 27 -6 0
22 -17 -18 -19 21 -23 -25 26 -27 -6 0
22 -17 -18 -19 21 -23 -25 -26 27 -6 0
22 -17 -18 -19 21 -23 -25 -26 -27 -6 0
22 -17 -18 -19 -21 23 25 26 27 -6 0
22 -17 -18 -19 -21 23 25 26 -27 -6 0
22 -17 -18 -19 -21 23 25 -26 27 -6 0
22 -17 -18 -19 -21 23 25 -26 -27 -6 0
22 -17 -18 -19 -21 23 -25 26 27 -6 0
22 -17 -18 -19 -21 23 -25 26 -27 -6 0
22 -17 -18 -19 -21 23 -25 -26 27 -6 0
22 -17 -18 -19 -21 23 -25 -26 -27 -6 0
22 -17 -18 -19 -21 -23 25 26 27 -6 0
22 -17 -18 -19 -21 -23 25 26 -27 -6 0
22 -17 -18 -19 -21 -23 25 -26 27 -6 0
22 -17 -18 -19 -21 -23 25 -26 -27 -6 0
22 -17 -18 -19 -21 -23 -25 26 27 -6 0
22 -17 -18 -19 -21 -23 -25 26 -27 -6 0
22 -17 -18 -19 -21 -23 -25 -26 27 -6 0
22 -17 -18 -19 -21 -23 -25 -26 -27 -6 0
-22 17 18 19 21 23 25 26 27 -6 0
-22 17 18 19 21 23 25 26 -27 -6 0
-22 17 18 19 21 23 25 -26 27 -6 0
-22 17 18 19 21 23 25 -26 -27 6 0
-22 17 18 19 21 23 -25 26 27 -6 0
-22 17 18 19 21 23 -25 26 -27 6 0
-22 17 18 19 21 23 -25 -26 27 6 0
-22 17 18 19 21 23 -25 -26 -27 6 0
-22 17 18 19 21 -23 25 26 27 -6 0
-22 17 18 19 21 -23 25 26 -27 6 0
-22 17 18 19 21 -23 25 -26 27 6 0
-22 17 18 19 21 -23 25 -26 -27 6 0
-22 17 18 19 21 -23 -25 26 27 6 0
-22 17 18 19 21 -23 -25 26 -27 6 0
-22 17 18 19 21 -23 -25 -26 27 6 0
-22 17 18 19 21 -23 -25 -26 -27 -6 0
-22 17 18 19 -21 23 25 26 27 -6 0
-22 17 18 19 -21 23 25 26 -27 6 0
-22 17 18 19 -21 23 25 -26 27 6 0
-22 17 18 19 -21 23 25 -26 -27 6 0
-22 17 18 19 -21 23 -25 26 27 6 0
-22 17 18 19 -21 23 -25 26 -27 6 0
-22 17 18 19 -21 23 -25 -26 27 6 0
-22 17 18 19 -21 23 -25 -26 -27 -6 0
-22 17 18 19 -21 -23 25 26 27 6 0
-22 17 18 19 -21 -23 25 26 -27 6 0
-22 17 18 19 -21 -23 25 -26 27 6 0
-22 17 18 19 -21 -23 25 -26 -27 -6 0
-22 17 18 19 -21 -23 -25 26 27 6 0
-22 17 18 19 -21 -23 -25 26 -27 -6 0
-22 17 18 19 -21 -23 -25 -26 27 -6 0
-22 17 18 19 -21 -23 -25 -26 -27 -6 0
-22 17 18 -19 21 23 25 26 27 -6 0
-22 17 18 -19 21 23 25 26 -27 6 0
-22 17 18 -19 21 23 25 -26 27 6 0
-22 17 18 -19 21 23 25 -26 -27 6 0
-22 17 18 -19 21 23 -25 26 27 6 0
-22 17 18 -19 21 23 -25 26 -27 6 0
-22 17 18 -19 21 23 -25 -26 27 6 0
-22 17 18 -19 21 23 -25 -26 -27 -6 0
-22 17 18 -19 21 -23 25 26 27 6 0
-22 17 18 -19 21 -23 25 26 -27 6 0
-22 17 18 -19 21 -23 25 -26 27 6 0
-22 17 18 -19 21 -23 25 -26 -27 -6 0
-22 17 18 -19 21 -23 -25 26 27 6 0
-22 17 18 -19 21 -23 -25 26 -27 -6 0
-22 17 18 -19 21 -23 -25 -26 27 -6 0
-22 17 18 -19 21 -23 -25 -26 -27 -6 0
-22 17 18 -19 -21 23 25 26 27 6 0
-22 17 18 -19 -21 23 25 26 -27 6 0
-22 17 18 -19 -21 23 25 -26 27 6 0
-22 17 18 -19 -21 23 25 -26 -27 -6 0
-22 17 18 -19 -21 23 -25 26 27 6 0
-22 17 18 -19 -21 23 -25 26 -27 -6 0
-22 17 18 -19 -21 23 -25 -26 27 -6 0
-22 17 18 -19 -21 23 -25 -26 -27 -6 0
-22 17 18 -19 -21 -23 25 26 27 6 0
-22 17 18 -19 -21 -23 25 26 -27 -6 0
-22 17 18 -19 -21 -23 25 -26 27 -6 0
-22 17 18 -19 -21 -23 25 -26 -27 -6 0
-22 17 18 -19 -21 -23 -25 26 27 -6 0
-22 17 18 -19 -21 -23 -25 26 -27 -6 0
-22 17 18 -19 -21 -23 -25 -26 27 -6 0
-22 17 18 -19 -21 -23 -25 -26 -27 -6 0
-22 17 -18 19 21 23 25 26 27 -6 0
-22 17 -18 19 21 23 25 26 -27 6 0
-22 17 -18 19 21 23 25 -26 27 6 0
-22 17 -18 19 21 23 25 -26 -27 6 0
-22 17 -18 19 21 23 -25 26 27 6 0
-22 17 -18 19 21 23 -25 26 -27 6 0
-22 17 -18 19 21 23 -25 -26 27 6 0
-22 17 -18 19 21 23 -25 -26 -27 -6 0
-22 17 -18 19 21 -23 25 26 27 6 0
-22 17 -18 19 21 -23 25 26 -27 6 0
-22 17 -18 19 21 -23 25 -26 27 6 0
-22 17 -18 19 21 -23 25 -26 -27 -6 0
-22 17 -18 19 21 -23 -25 26 27 6 0
-22 17 -18 19 21 -23 -25 26 -27 -6 0
-22 17 -18 19 21 -23 -25 -26 27 -6 0
-22 17 -18 19 21 -23 -25 -26 -27 -6 0
-22 17 -18 19 -21 23 25 26 27 6 0
-22 17 -18 19 -21 23 25 26 -27 6 0
-22 17 -18 19 -21 23 25 -26 27 6 0
-22 17 -18 19 -21 23 25 -26 -27 -6 0
-22 17 -18 19 -21 23 -25 26 27 6 0
-22 17 -18 19 -21 23 -25 26 -27 -6 0
-22 17 -18 19 -21 23 -25 -26 27 -6 0
-22 17 -18 19 -21 23 -25 -26 -27 -6 0
-22 17 -18 19 -21 -23 25 26 27 6 0
-22 17 -18 19 -21 -23 25 26 -27 -6 0
-22 17 -18 19 -21 -23 25 -26 27 -6 0
-22 17 -18 19 -21 -23 25 -26 -27 -6 0
-22 17 -18 19 -21 -23 -25 26 27 -6 0
-22 17 -18 19 -21 -23 -25 26 -27 -6 0
-22 17 -18 19 -21 -23 -25 -26 27 -6 0
-22 17 -18 19 -21 -23 -25 -26 -27 -6 0
-22 17 -18 -19 21 23 25 26 27 6 0
-22 17 -18 -19 21 23 25 26 -27 6 0
-22 17 -18 -19 21 23 25 -26 27 6 0
-22 17 -18 -19 21 23 25 -26 -27 -6 0
-22 17 -18 -19 21 23 -25 26 27 6 0
-22 17 -18 -19 21 23 -25 26 -27 -6 0
-22 17 -18 -19 21 23 -25 -26 27 -6 0
-22 17 -18 -19 21 23 -25 -26 -27 -6 0
-22 17 -18 -19 21 -23 25 26 27 6 0
-22 17 -18 -19 21 -23 25 26 -27 -6 0
-22 17 -18 -19 21 -23 25 -26 27 -6 0
-22 17 -18 -19 21 -23 25 -26 -27 -6 0
-22 17 -18 -19 21 -23 -25 26 27 -6 0
-22 17 -18 -19 21 -23 -25 26 -27 -6 0
-22 17 -18 -19 21 -23 -25 -26 27 -6 0
-22 17 -18 -19 21 -23 -25 -26 -27 -6 0
-22 17 -18 -19 -21 23 25 26 27 6 0
-22 17 -18 -19 -21 23 25 26 -27 -6 0
-22 17 -18 -19 -21 23 25 -26 27 -6 0
-22 17 -18 -19 -21 23 25 -26 -27 -6 0
-22 17 -18 -19 -21 23 -25 26 27 -6 0
-22 17 -18 -19 -21 23 -25 26 -27 -6 0
-22 17 -18 -19 -21 23 -25 -26 27 -6 0
-22 17 -18 -19 -21 23 -25 -26 -27 -6 0
-22 17 -18 -19 -21 -23 25 26 27 -6 0
-22 17 -18 -19 -21 -23 25 26 -27 -6 0
-22 17 -18 -19 -21 -23 25 -26 27 -6 0
-22 17 -18 -19 -21 -23 25 -26 -27 -6 0
-22 17 -18 -19 -21 -23 -25 26 27 -6 0
-22 17 -18 -19 -21 -23 -25 26 -27 -6 0
-22 17 -18 -19 -21 -23 -25 -26 27 -6 0
-22 17 -18 -19 -21 -23 -25 -26 -27 -6 0
-22 -17 18 19 21 23 25 26 27 -6 0
-22 -17 18 19 21 23 25 26 -27 6 0
-22 -17 18 19 21 23 25 -26 27 6 0
-22 -17 18 19 21 23 25 -26 -27 6 0
-22 -17 18 19 21 23 -25 26 27 6 0
-22 -17 18 19 21 23 -25 26 -27 6 0
-22 -17 18 19 21 23 -25 -26 27 6 0
-22 -17 18 19 21 23 -25 -26 -27 -6 0
-22 -17 18 19 21 -23 25 26 27 6 0
-22 -17 18 19 21 -23 25 26 -27 6 0
-22 -17 18 19 21 -23 25 -26 27 6 0
-22 -17 18 19 21 -23 25 -26 -27 -6 0
-22 -17 18 19 21 -23 -25 26 27 6 0
-22 -17 18 19 21 -23 -25 26 -27 -6 0
-22 -17 18 19 21 -23 -25 -26 27 -6 0
-22 -17 18 19 21 -23 -25 -26 -27 -6 0
-22 -17 18 19 -21 23 25 26 27 6 0
-22 -17 18 19 -21 23 25 26 -27 6 0
-22 -17 18 19 -21 23 25 -26 27 6 0
-22 -17 18 19 -21 23 25 -26 -27 -6 0
-22 -17 18 19 -21 23 -25 26 27 6 0
-22 -17 18 19 -21 23 -25 26 -27 -6 0
-22 -17 18 19 -21 23 -25 -26 27 -6 0
-22 -17 18 19 -21 23 -25 -26 -27 -6 0
-22 -17 18 19 -21 -23 25 26 27 6 0
-22 -17 18 19 -21 -23 25 26 -27 -6 0
-22 -17 18 19 -21 -23 25 -26 27 -6 0
-22 -17 18 19 -21 -23 25 -26 -27 -6 0
-22 -17 18 19 -21 -23 -25 26 27 -6 0
-22 -17 18 19 -21 -23 -25 26 -27 -6 0
-22 -17 18 19 -21 -23 -25 -26 27 -6 0
-22 -17 18 19 -21 -23 -25 -26 -27 -6 0
-22 -17 18 -19 21 23 25 26 27 6 0
-22 -17 18 -19 21 23 25 26 -27 6 0
-22 -17 18 -19 21 23 25 -26 27 6 0
-22 -17 18 -19 21 23 25 -26 -27 -6 0
-22 -17 18 -19 21 23 -25 26 27 6 0
-22 -17 18 -19 21 23 -25 26 -27 -6 0
-22 -17 18 -19 21 23 -25 -26 27 -6 0
-22 -17 18 -19 21 23 -25 -26 -27 -6 0
-22 -17 18 -19 21 -23 25 26 27 6 0
-22 -17 18 -19 21 -23 25 26 -27 -6 0
-22 -17 18 -19 21 -23 25 -26 27 -6 0
-22 -17 18 -19 21 -23 25 -26 -27 -6 0
-22 -17 18 -19 21 -23 -25 26 27 -6 0
-22 -17 18 -19 21 -23 -25 26 -27 -6 0
-22 -17 18 -19 21 -23 -25 -26 27 -6 0
-22 -17 18 -19 21 -23 -25 -26 -27 -6 0
-22 -17 18 -19 -21 23 25 26 27 6 0
-22 -17 18 -19 -21 23 25 26 -27 -6 0
-22 -17 18 -19 -21 23 25 -26 27 -6 0
-22 -17 18 -19 -21 23 25 -26 -27 -6 0
-22 -17 18 -19 -21 23 -25 26 27 -6 0
-22 -17 18 -19 -21 23 -25 26 -27 -6 0
-22 -17 18 -19 -21 23 -25 -26 27 -6 0
-22 -17 18 -19 -21 23 -25 -26 -27 -6 0
-22 -17 18 -19 -21 -23 25 26 27 -6 0
-22 -17 18 -19 -21 -23 25 26 -27 -6 0
-22 -17 18 -19 -21 -23 25 -26 27 -6 0
-22 -17 18 -19 -21 -23 25 -26 -27 -6 0
-22 -17 18 -19 -21 -23 -25 26 27 -6 0
-22 -17 18 -19 -21 -23 -25 26 -27 -6 0
-22 -17 18 -19 -21 -23 -25 -26 27 -6 0
-22 -17 18 -19 -21 -23 -25 -26 -27 -6 0
-22 -17 -18 19 21 23 25 26 27 6 0
-22 -17 -18 19 21 23 25 26 -27 6 0
-22 -17 -18 19 21 23 25 -26 27 6 0
-22 -17 -18 19 21 23 25 -26 -27 -6 0
-22 -17 -18 19 21 23 -25 26 27 6 0
-22 -17 -18 19 21 23 -25 26 -27 -6 0
-22 -17 -18 19 21 23 -25 -26 27 -6 0
-22 -17 -18 19 21 23 -25 -26 -27 -6 0
-22 -17 -18 19 21 -23 25 26 27 6 0
-22 -17 -18 19 21 -23 25 26 -27 -6 0
-22 -17 -18 19 21 -23 25 -26 27 -6 0
-22 -17 -18 19 21 -23 25 -26 -27 -6 0
-22 -17 -18 19 21 -23 -25 26 27 -6 0
-22 -17 -18 19 21 -23 -25 26 -27 -6 0
-22 -17 -18 19 21 -23 -25 -26 27 -6 0
-22 -17 -18 19 21 -23 -25 -26 -27 -6 0
-22 -17 -18 19 -21 23 25 26 27 6 0
-22 -17 -18 19 -21 23 25 26 -27 -6 0
-22 -17 -18 19 -21 23 25 -26 27 -6 0
-22 -17 -18 19 -21 23 25 -26 -27 -6 0
-22 -17 -18 19 -21 23 -25 26 27 -6 0
-22 -17 -18 19 -21 23 -25 26 -27 -6 0
-22 -17 -18 19 -21 23 -25 -26 27 -6 0
-22 -17 -18 19 -21 23 -25 -26 -27 -6 0
-22 -17 -18 19 -21 -23 25 26 27 -6 0
-22 -17 -18 19 -21 -23 25 26 -27 -6 0
-22 -17 -18 19 -21 -23 25 -26 27 -6 0
-22 -17 -18 19 -21 -23 25 -26 -27 -6 0
-22 -17 -18 19 -21 -23 -25 26 27 -6 0
-22 -17 -18 19 -21 -23 -25 26 -27 -6 0
-22 -17 -18 19 -21 -23 -25 -26 27 -6 0
-22 -17 -18 19 -21 -23 -25 -26 -27 -6 0
-22 -17 -18 -19 21 23 25 26 27 6 0
-22 -17 -18 -19 21 23 25 26 -27 -6 0
-22 -17 -18 -19 21 23 25 -26 27 -6 0
-22 -17 -18 -19 21 23 25 -26 -27 -6 0
-22 -17 -18 -19 21 23 -25 26 27 -6 0
-22 -17 -18 -19 21 23 -25 26 -27 -6 0
-22 -17 -18 -19 21 23 -25 -26 27 -6 0
-22 -17 -18 -19 21 23 -25 -26 -27 -6 0
-22 -17 -18 -19 21 -23 25 26 27 -6 0
-22 -17 -18 -19 21 -23 25 26 -27 -6 0
-22 -17 -18 -19 21 -23 25 -26 27 -6 0
-22 -17 -18 -19 21 -23 25 -26 -27 -6 0
-22 -17 -18 -19 21 -23 -25 26 27 -6 0
-22 -17 -18 -19 21 -23 -25 26 -27 -6 0
-22 -17 -18 -19 21 -23 -25 -26 27 -6 0
-22 -17 -18 -19 21 -23 -25 -26 -27 -6 0
-22 -17 -18 -19 -21 23 25 26 27 -6 0
-22 -17 -18 -19 -21 23 25 26 -27 -6 0
-22 -17 -18 -19 -21 23 25 -26 27 -6 0
-22 -17 -18 -19 -21 23 25 -26 -27 -6 0
-22 -17 -18 -19 -21 23 -25 26 27 -6 0
-22 -17 -18 -19 -21 23 -25 26 -27 -6 0
-22 -17 -18 -19 -21 23 -25 -26 27 -6 0
-22 -17 -18 -19 -21 23 -25 -26 -27 -6 0
-22 -17 -18 -19 -21 -23 25 26 27 -6 0
-22 -17 -18 -19 -21 -23 25 26 -27 -6 0
-22 -17 -18 -19 -21 -23 25 -26 27 -6 0
-22 -17 -18 -19 -21 -23 25 -26 -27 -6 0
-22 -17 -18 -19 -21 -23 -25 26 27 -6 0
-22 -17 -18 -19 -21 -23 -25 26 -27 -6 0
-22 -17 -18 -19 -21 -23 -25 -26 27 -6 0
-22 -17 -18 -19 -21 -23 -25 -26 -27 -6 0
23 18 19 20 22 24 26 27 28 -7 0
23 18 19 20 22 24 26 27 -28 -7 0
23 18 19 20 22 24 26 -27 28 -7 0
23 18 19 20 22 24 26 -27 -28 -7 0
23 18 19 20 22 24 -26 27 28 -7 0
23 18 19 20 22 24 -26 27 -28 -7 0
23 18 19 20 22 24 -26 -27 28 -7 0
23 18 19 20 22 24 -26 -27 -28 7 0
23 18 19 20 22 -24 26 27 28 -7 0
23 18 19 20 22 -24 26 27 -28 -7 0
23 18 19 20 22 -24 26 -27 28 -7 0
23 18 19 20 22 -24 26 -27 -28 7 0
23 18 19 20 22 -24 -26 27 28 -7 0
23 18 19 20 22 -24 -26 27 -28 7 0
23 18 19 20 22 -24 -26 -27 28 7 0
23 18 19 20 22 -24 -26 -27 -28 -7 0
23 18 19 20 -22 24 26 27 28 -7 0
23 18 19 20 -22 24 26 27 -28 -7 0
23 18 19 20 -22 24 26 -27 28 -7 0
23 18 19 20 -22 24 26 -27 -28 7 0
23 18 19 20 -22 24 -26 27 28 -7 0
23 18 19 20 -22 24 -26 27 -28 7 0
23 18 19 20 -22 24 -26 -27 28 7 0
23 18 19 20 -22 24 -26 -27 -28 -7 0
23 18 19 20 -22 -24 26 27 28 -7 0
23 18 19 20 -22 -24 26 27 -28 7 0
23 18 19 20 -22 -24 26 -27 28 7 0
23 18 19 20 -22 -24 26 -27 -28 -7 0
23 18 19 20 -22 -24 -26 27 28 7 0
23 18 19 20 -22 -24 -26 27 -28 -7 0
23 18 19 20 -22 -24 -26 -27 28 -7 0
23 18 19 20 -22 -24 -26 -27 -28 -7 0
23 18 19 -20 22 24 26 27 28 -7 0
23 18 19 -20 22 24 26 27 -28 -7 0
23 18 19 -20 22 24 26 -27 28 -7 0
23 18 19 -20 22 24 26 -27 -28 7 0
23 18 19 -20 22 24 -26 27 28 -7 0
23 18 19 -20 22 24 -26 27 -28 7 0
23 18 19 -20 22 24 -26 -27 28 7 0
23 18 19 -20 22 24 -26 -27 -28 -7 0
23 18 19 -20 22 -24 26 27 28 -7 0
23 18 19 -20 22 -24 26 27 -28 7 0
23 18 19 -20 22 -24 26 -27 28 7 0
23 18 19 -20 22 -24 26 -27 -28 -7 0
23 18 19 -20 22 -24 -26 27 28 7 0
23 18 19 -20 22 -24 -26 27 -28 -7 0
23 18 19 -20 22 -24 -26 -27 28 -7 0
23 18 19 -20 22 -24 -26 -27 -28 -7 0
23 18 19 -20 -22 24 26 27 28 -7 0
23 18 19 -20 -22 24 26 27 -28 7 0
23 18 19 -20 -22 24 26 -27 28 7 0
23 18 19 -20 -22 24 26 -27 -28 -7 0
23 18 19 -20 -22 24 -26 27 28 7 0
23 18 19 -20 -22 24 -26 27 -28 -7 0
23 18 19 -20 -22 24 -26 -27 28 -7 0
23 18 19 -20 -22 24 -26 -27 -28 -7 0
23 18 19 -20 -22 -24 26 27 28 7 0
23 18 19 -20 -22 -24 26 27 -28 -7 0
23 18 19 -20 -22 -24 26 -27 28 -7 0
23 18 19 -20 -22 -24 26 -27 -28 -7 0
23 18 19 -20 -22 -24 -26 27 28 -7 0
23 18 19 -20 -22 -24 -26 27 -28 -7 0
23 18 19 -20 -22 -24 -26 -27 28 -7 0
23 18 19 -20 -22 -24 -26 -27 -28 -7 0
23 18 -19 20 22 24 26 27 28 -7 0
23 18 -19 20 22 24 26 27 -28 -7 0
23 18 -19 20 22 24 26 -27 28 -7 0
23 18 -19 20 22 24 26 -27 -28 7 0
23 18 -19 20 22 24 -26 27 28 -7 0
23 18 -19 20 22 24 -26 27 -28 7 0
23 18 -19 20 22 24 -26 -27 28 7 0
23 18 -19 20 22 24 -26 -27 -28 -7 0
23 18 -19 20 22 -24 26 27 28 -7 0
23 18 -19 20 22 -24 26 27 -28 7 0
23 18 -19 20 22 -24 26 -27 28 7 0
23 18 -19 20 22 -24 26 -27 -28 -7 0
23 18 -19 20 22 -24 -26 27 28 7 0
23 18 -19 20 22 -24 -26 27 -28 -7 0
23 18 -19 20 22 -24 -26 -27 28 -7 0
23 18 -19 20 22 -24 -26 -27 -28 -7 0
23 18 -19 20 -22 24 26 27 28 -7 0
23 18 -19 20 -22 24 26 27 -28 7 0
23 18 -19 20 -22 24 26 -27 28 7 0
23 18 -19 20 -22 24 26 -27 -28 -7 0
23 18 -19 20 -22 24 -26 27 28 7 0
23 18 -19 20 -22 24 -26 27 -28 -7 0
23 18 -19 20 -22 24 -26 -27 28 -7 0
23 18 -19 20 -22 24 -26 -27 -28 -7 0
23 18 -19 20 -22 -24 26 27 28 7 0
23 18 -19 20 -22 -24 26 27 -28 -7 0
23 18 -19 20 -22 -24 26 -27 28 -7 0
23 18 -19 20 -22 -24 26 -27 -28 -7 0
23 18 -19 20 -22 -24 -26 27 28 -7 0
23 18 -19 20 -22 -24 -26 27 -28 -7 0
23 18 -19 20 -22 -24 -26 -27 28 -7 0
23 18 -19 20 -22 -24 -26 -27 -28 -7 0
23 18 -19 -20 22 24 26 27 28 -7 0
23 18 -19 -20 22 24 26 27 -28 7 0
23 18 -19 -20 22 24 26 -27 28 7 0
23 18 -19 -20 22 24 26 -27 -28 -7 0
23 18 -19 -20 22 24 -26 27 28 7 0
23 18 -19 -20 22 24 -26 27 -28 -7 0
23 18 -19 -20 22 24 -26 -27 28 -7 0
23 18 -19 -20 22 24 -26 -27 -28 -7 0
23 18 -19 -20 22 -24 26 27 28 7 0
23 18 -19 -20 22 -24 26 27 -28 -7 0
23 18 -19 -20 22 -24 26 -27 28 -7 0
23 18 -19 -20 22 -24 26 -27 -28 -7 0
23 18 -19 -20 22 -24 -26 27 28 -7 0
23 18 -19 -20 22 -24 -26 27 -28 -7 0
23 18 -19 -20 22 -24 -26 -27 28 -7 0
23 18 -19 -20 22 -24 -26 -27 -28 -7 0
23 18 -19 -20 -22 24 26 27 28 7 0
23 18 -19 -20 -22 24 26 27 -28 -7 0
23 18 -19 -20 -22 24 26 -27 28 -7 0
23 18 -19 -20 -22 24 26 -27 -28 -7 0
23 18 -19 -20 -22 24 -26 27 28 -7 0
23 18 -19 -20 -22 24 -26 27 -28 -7 0
23 18 -19 -20 -22 24 -26 -27 28 -7 0
23 18 -19 -20 -22 24 -26 -27 -28 -7 0
23 18 -19 -20 -22 -24 26 27 28 -7 0
23 18 -19 -20 -22 -24 26 27 -28 -7 0
23 18 -19 -20 -22 -24 26 -27 28 -7 0
23 18 -19 -20 -22 -24 26 -27 -28 -7 0
23 18 -19 -20 -22 -24 -26 27 28 -7 0
23 18 -19 -20 -22 -24 -26 27 -28 -7 0
23 18 -19 -20 -22 -24 -26 -27 28 -7 0
23 18 -19 -20 -22 -24 -26 -27 -28 -7 0
23 -18 19 20 22 24 26 27 28 -7 0
23 -18 19 20 22 24 26 27 -28 -7 0
23 -18 19 20 22 24 26 -27 28 -7 0
23 -18 19 20 22 24 26 -27 -28 7 0
23 -18 19 20 22 24 -26 27 28 -7 0
23 -18 19 20 22 24 -26 27 -28 7 0
23 -18 19 20 22 24 -26 -27 28 7 0
23 -18 19 20 22 24 -26 -27 -28 -7 0
23 -18 19 20 22 -24 26 27 28 -7 0
23 -18 19 20 22 -24 26 27 -28 7 0
23 -18 19 20 22 -24 26 -27 28 7 0
23 -18 19 20 22 -24 26 -27 -28 -7 0
23 -18 19 20 22 -24 -26 27 28 7 0
23 -18 19 20 22 -24 -26 27 -28 -7 0
23 -18 19 20 22 -24 -26 -27 28 -7 0
23 -18 19 20 22 -24 -26 -27 -28 -7 0
23 -18 19 20 -22 24 26 27 28 -7 0
23 -18 19 20 -22 24 26 27 -28 7 0
23 -18 19 20 -22 24 26 -27 28 7 0
23 -18 19 20 -22 24 26 -27 -28 -7 0
23 -18 19 20 -22 24 -26 27 28 7 0
23 -18 19 20 -22 24 -26 27 -28 -7 0
23 -18 19 20 -22 24 -26 -27 28 -7 0
23 -18 19 20 -22 24 -26 -27 -28 -7 0
23 -18 19 20 -22 -24 26 27 28 7 0
23 -18 19 20 -22 -24 26 27 -28 -7 0
23 -18 19 20 -22 -24 26 -27 28 -7 0
23 -18 19 20 -22 -24 26 -27 -28 -7 0
23 -18 19 20 -22 -24 -26 27 28 -7 0
23 -18 19 20 -22 -24 -26 27 -28 -7 0
23 -18 19 20 -22 -24 -26 -27 28 -7 0
23 -18 19 20 -22 -24 -26 -27 -28 -7 0
23 -18 19 -20 22 24 26 27 28 -7 0
23 -18 19 -20 22 24 26 27 -28 7 0
23 -18 19 -20 22 24 26 -27 28 7 0
23 -18 19 -20 22 24 26 -27 -28 -7 0
23 -18 19 -20 22 24 -26 27 28 7 0
23 -18 19 -20 22 24 -26 27 -28 -7 0
23 -18 19 -20 22 24 -26 -27 28 -7 0
23 -18 19 -20 22 24 -26 -27 -28 -7 0
23 -18 19 -20 22 -24 26 27 28 7 0
23 -18 19 -20 22 -24 26 27 -28 -7 0
23 -18 19 -20 22 -24 26 -27 28 -7 0
23 -18 19 -20 22 -24 26 -27 -28 -7 0
23 -18 19 -20 22 -24 -26 27 28 -7 0
23 -18 19 -20 22 -24 -26 27 -28 -7 0
23 -18 19 -20 22 -24 -26 -27 28 -7 0
23 -18 19 -20 22 -24 -26 -27 -28 -7 0
23 -18 19 -20 -22 24 26 27 28 7 0
23 -18 19 -20 -22 24 26 27 -28 -7 0
23 -18 19 -20 -22 24 26 -27 28 -7 0
23 -18 19 -20 -22 24 26 -27 -28 -7 0
23 -18 19 -20 -22 24 -26 27 28 -7 0
23 -18 19 -20 -22 24 -26 27 -28 -7 0
23 -18 19 -20 -22 24 -26 -27 28 -7 0
23 -18 19 -20 -22 24 -26 -27 -28 -7 0
23 -18 19 -20 -22 -24 26 27 28 -7 0
23 -18 19 -20 -22 -24 26 27 -28 -7 0
23 -18 19 -20 -22 -24 26 -27 28 -7 0
23 -18 19 -20 -22 -24 26 -27 -28 -7 0
23 -18 19 -20 -22 -24 -26 27 28 -7 0
23 -18 19 -20 -22 -24 -26 27 -28 -7 0
23 -18 19 -20 -22 -24 -26 -27 28 -7 0
23 -18 19 -20 -22 -24 -26 -27 -28 -7 0
23 -18 -19 20 22 24 26 27 28 -7 0
23 -18 -19 20 22 24 26 27 -28 7 0
23 -18 -19 20 22 24 26 -27 28 7 0
23 -18 -19 20 22 24 26 -27 -28 -7 0
23 -18 -19 20 22 24 -26 27 28 7 0
23 -18 -19 20 22 24 -26 27 -28 -7 0
23 -18 -19 20 22 24 -26 -27 28 -7 0
23 -18 -19 20 22 24 -26 -27 -28 -7 0
23 -18 -19 20 22 -24 26 27 28 7 0
23 -18 -19 20 22 -24 26 27 -28 -7 0
23 -18 -19 20 22 -24 26 -27 28 -7 0
23 -18 -19 20 22 -24 26 -27 -28 -7 0
23 -18 -19 20 22 -24 -26 27 28 -7 0
23 -18 -19 20 22 -24 -26 27 -28 -7 0
23 -18 -19 20 22 -24 -26 -27 28 -7 0
23 -18 -19 20 22 -24 -26 -27 -28 -7 0
23 -18 -19 20 -22 24 26 27 28 7 0
23 -18 -19 20 -22 24 26 27 -28 -7 0
23 -18 -19 20 -22 24 26 -27 28 -7 0
23 -18 -19 20 -22 24 26 -27 -28 -7 0
23 -18 -19 20 -22 24 -26 27 28 -7 0
23 -18 -19 20 -22 24 -26 27 -28 -7 0
23 -18 -19 20 -22 24 -26 -27 28 -7 0
23 -18 -19 20 -22 24 -26 -27 -28 -7 0
23 -18 -19 20 -22 -24 26 27 28 -7 0
23 -18 -19 20 -22 -24 26 27 -28 -7 0
23 -18 -19 20 -22 -24 26 -27 28 -7 0
23 -18 -19 20 -22 -24 26 -27 -28 -7 0
23 -18 -19 20 -22 -24 -26 27 28 -7 0
23 -18 -19 20 -22 -24 -26 27 -28 -7 0
23 -18 -19 20 -22 -24 -26 -27 28 -7 0
23 -18 -19 20 -22 -24 -26 -27 -28 -7 0
23 -18 -19 -20 22 24 26 27 28 7 0
23 -18 -19 -20 22 24 26 27 -28 -7 0
23 -18 -19 -20 22 24 26 -27 28 -7 0
23 -18 -19 -20 22 24 26 -27 -28 -7 0
23 -18 -19 -20 22 24 -26 27 28 -7 0
23 -18 -19 -20 22 24 -26 27 -28 -7 0
23 -18 -19 -20 22 24 -26 -27 28 -7 0
23 -18 -19 -20 22 24 -26 -27 -28 -7 0
23 -18 -19 -20 22 -24 26 27 28 -7 0
23 -18 -19 -20 22 -24 26 27 -28 -7 0
23 -18 -19 -20 22 -24 26 -27 28 -7 0
23 -18 -19 -20 22 -24 26 -27 -28 -7 0
23 -18 -19 -20 22 -24 -26 27 28 -7 0
23 -18 -19 -20 22 -24 -26 27 -28 -7 0
23 -18 -19 -20 22 -24 -26 -27 28 -7 0
23 -18 -19 -20 22 -24 -26 -27 -28 -7 0
23 -18 -19 -20 -22 24 26 27 28 -7 0
23 -18 -19 -20 -22 24 26 27 -28 -7 0
23 -18 -19 -20 -22 24 26 -27 28 -7 0
23 -18 -19 -20 -22 24 26 -27 -28 -7 0
23 -18 -19 -20 -22 24 -26 27 28 -7 0
23 -18 -19 -20 -22 24 -26 27 -28 -7 0
23 -18 -19 -20 -22 24 -26 -27 28 -7 0
23 -18 -19 -20 -22 24 -26 -27 -28 -7 0
23 -18 -19 -20 -22 -24 26 27 28 -7 0
23 -18 -19 -20 -22 -24 26 27 -28 -7 0
23 -18 -19 -20 -22 -24 26 -27 28 -7 0
23 -18 -19 -20 -22 -24 26 -27 -28 -7 0
23 -18 -19 -20 -22 -24 -26 27 28 -7 0
23 -18 -19 -20 -22 -24 -26 27 -28 -7 0
23 -18 -19 -20 -22 -24 -26 -27 28 -7 0
23 -18 -19 -20 -22 -24 -26 -27 -28 -7 0
-23 18 19 20 22 24 26 27 28 -7 0
-23 18 19 20 22 24 26 27 -28 -7 0
-23 18 19 20 22 24 26 -27 28 -7 0
-23 18 19 20 22 24 26 -27 -28 7 0
-23 18 19 20 22 24 -26 27 28 -7 0
-23 18 19 20 22 24 -26 27 -28 7 0
-23 18 19 20 22 24 -26 -27 28 7 0
-23 18 19 20 22 24 -26 -27 -28 7 0
-23 18 19 20 22 -24 26 27 28 -7 0
-23 18 19 20 22 -24 26 27 -28 7 0
-23 18 19 20 22 -24 26 -27 28 7 0
-23 18 19 20 22 -24 26 -27 -28 7 0
-23 18 19 20 22 -24 -26 27 28 7 0
-23 18 19 20 22 -24 -26 27 -28 7 0
-23 18 19 20 22 -24 -26 -27 28 7 0
-23 18 19 20 22 -24 -26 -27 -28 -7 0
-23 18 19 20 -22 24 26 27 28 -7 0
-23 18 19 20 -22 24 26 27 -28 7 0
-23 18 19 20 -22 24 26 -27 28 7 0
-23 18 19 20 -22 24 26 -27 -28 7 0
-23 18 19 20 -22 24 -26 27 28 7 0
-23 18 19 20 -22 24 -26 27 -28 7 0
-23 18 19 20 -22 24 -26 -27 28 7 0
-23 18 19 20 -22 24 -26 -27 -28 -7 0
-23 18 19 20 -22 -24 26 27 28 7 0
-23 18 19 20 -22 -24 26 27 -28 7 0
-23 18 19 20 -22 -24 26 -27 28 7 0
-23 18 19 20 -22 -24 26 -27 -28 -7 0
-23 18 19 20 -22 -24 -26 27 28 7 0
-23 18 19 20 -22 -24 -26 27 -28 -7 0
-23 18 19 20 -22 -24 -26 -27 28 -7 0
-23 18 19 20 -22 -24 -26 -27 -28 -7 0
-23 18 19 -20 22 24 26 27 28 -7 0
-23 18 19 -20 22 24 26 27 -28 7 0
-23 18 19 -20 22 24 26 -27 28 7 0
-23 18 19 -20 22 24 26 -27 -28 7 0
-23 18 19 -20 22 24 -26 27 28 7 0
-23 18 19 -20 22 24 -26 27 -28 7 0
-23 18 19 -20 22 24 -26 -27 28 7 0
-23 18 19 -20 22 24 -26 -27 -28 -7 0
-23 18 19 -20 22 -24 26 27 28 7 0
-23 18 19 -20 22 -24 26 27 -28 7 0
-23 18 19 -20 22 -24 26 -27 28 7 0
-23 18 19 -20 22 -24 26 -27 -28 -7 0
-23 18 19 -20 22 -24 -26 27 28 7 0
-23 18 19 -20 22 -24 -26 27 -28 -7 0
-23 18 19 -20 22 -24 -26 -27 28 -7 0
-23 18 19 -20 22 -24 -26 -27 -28 -7 0
-23 18 19 -20 -22 24 26 27 28 7 0
-23 18 19 -20 -22 24 26 27 -28 7 0
-23 18 19 -20 -22 24 26 -27 28 7 0
-23 18 19 -20 -22 24 26 -27 -28 -7 0
-23 18 19 -20 -22 24 -26 27 28 7 0
-23 18 19 -20 -22 24 -26 27 -28 -7 0
-23 18 19 -20 -22 24 -26 -27 28 -7 0
-23 18 19 -20 -22 24 -26 -27 -28 -7 0
-23 18 19 -20 -22 -24 26 27 28 7 0
-23 18 19 -20 -22 -24 26 27 -28 -7 0
-23 18 19 -20 -22 -24 26 -27 28 -7 0
-23 18 19 -20 -22 -24 26 -27 -28 -7 0
-23 18 19 -20 -22 -24 -26 27 28 -7 0
-23 18 19 -20 -22 -24 -26 27 -28 -7 0
-23 18 19 -20 -22 -24 -26 -27 28 -7 0
-23 18 19 -20 -22 -24 -26 -27 -28 -7 0
-23 18 -19 20 22 24 26 27 28 -7 0
-23 18 -19 20 22 24 26 27 -28 7 0
-23 18 -19 20 22 24 26 -27 28 7 0
-23 18 -19 20 22 24 26 -27 -28 7 0
-23 18 -19 20 22 24 -26 27 28 7 0
-23 18 -19 20 22 24 -26 27 -28 7 0
-23 18 -19 20 22 24 -26 -27 28 7 0
-23 18 -19 20 22 24 -26 -27 -28 -7 0
-23 18 -19 20 22 -24 26 27 28 7 0
-23 18 -19 20 22 -24 26 27 -28 7 0
-23 18 -19 20 22 -24 26 -27 28 7 0
-23 18 -19 20 22 -24 26 -27 -28 -7 0
-23 18 -19 20 22 -24 -26 27 28 7 0
-23 18 -19 20 22 -24 -26 27 -28 -7 0
-23 18 -19 20 22 -24 -26 -27 28 -7 0
-23 18 -19 20 22 -24 -26 -27 -28 -7 0
-23 18 -19 20 -22 24 26 27 28 7 0
-23 18 -19 20 -22 24 26 27 -28 7 0
-23 18 -19 20 -22 24 26 -27 28 7 0
-23 18 -19 20 -22 24 26 -27 -28 -7 0
-23 18 -19 20 -22 24 -26 27 28 7 0
-23 18 -19 20 -22 24 -26 27 -28 -7 0
-23 18 -19 20 -22 24 -26 -27 28 -7 0
-23 18 -19 20 -22 24 -26 -27 -28 -7 0
-23 18 -19 20 -22 -24 26 27 28 7 0
-23 18 -19 20 -22 -24 26 27 -28 -7 0
-23 18 -19 20 -22 -24 26 -27 28 -7 0
-23 18 -19 20 -22 -24 26 -27 -28 -7 0
-23 18 -19 20 -22 -24 -26 27 28 -7 0
-23 18 -19 20 -22 -24 -26 27 -28 -7 0
-23 18 -19 20 -22 -24 -26 -27 28 -7 0
-23 18 -19 20 -22 -24 -26 -27 -28 -7 0
-23 18 -19 -20 22 24 26 27 28 7 0
-23 18 -19 -20 22 24 26 27 -28 7 0
-23 18 -19 -20 22 24 26 -27 28 7 0
-23 18 -19 -20 22 24 26 -27 -28 -7 0
-23 18 -19 -20 22 24 -26 27 28 7 0
-23 18 -19 -20 22 24 -26 27 -28 -7 0
-23 18 -19 -20 22 24 -26 -27 28 -7 0
-23 18 -19 -20 22 24 -26 -27 -28 -7 0
-23 18 -19 -20 22 -24 26 27 28 7 0
-23 18 -19 -20 22 -24 26 27 -28 -7 0
-23 18 -19 -20 22 -24 26 -27 28 -7 0
-23 18 -19 -20 22 -24 26 -27 -28 -7 0
-23 18 -19 -20 22 -24 -26 27 28 -7 0
-23 18 -19 -20 22 -24 -26 27 -28 -7 0
-23 18 -19 -20 22 -24 -26 -27 28 -7 0
-23 18 -19 -20 22 -24 -26 -27 -28 -7 0
-23 18 -19 -20 -22 24 26 27 28 7 0
-23 18 -19 -20 -22 24 26 27 -28 -7 0
-23 18 -19 -20 -22 24 26 -27 28 -7 0
-23 18 -19 -20 -22 24 26 -27 -28 -7 0
-23 18 -19 -20 -22 24 -26 27 28 -7 0
-23 18 -19 -20 -22 24 -26 27 -28 -7 0
-23 18 -19 -20 -22 24 -26 -27 28 -7 0
-23 18 -19 -20 -22 24 -26 -27 -28 -7 0
-23 18 -19 -20 -22 -24 26 27 28 -7 0
-23 18 -19 -20 -22 -24 26 27 -28 -7 0
-23 18 -19 -20 -22 -24 26 -27 28 -7 0
-23 18 -19 -20 -22 -24 26 -27 -28 -7 0
-23 18 -19 -20 -22 -24 -26 27 28 -7 0
-23 18 -19 -20 -22 -24 -26 27 -28 -7 0
-23 18 -19 -20 -22 -24 -26 -27 28 -7 0
-23 18 -19 -20 -22 -24 -26 -27 -28 -7 0
-23 -18 19 20 22 24 26 27 28 -7 0
-23 -18 19 20 22 24 26 27 -28 7 0
-23 -18 19 20 22 24 26 -27 28 7 0
-23 -18 19 20 22 24 26 -27 -28 7 0
-23 -18 19 20 22 24 -26 27 28 7 0
-23 -18 19 20 22 24 -26 27 -28 7 0
-23 -18 19 20 22 24 -26 -27 28 7 0
-23 -18 19 20 22 24 -26 -27 -28 -7 0
-23 -18 19 20 22 -24 26 27 28 7 0
-23 -18 19 20 22 -24 26 27 -28 7 0
-23 -18 19 20 22 -24 26 -27 28 7 0
-23 -18 19 20 22 -24 26 -27 -28 -7 0
-23 -18 19 20 22 -24 -26 27 28 7 0
-23 -18 19 20 22 -24 -26 27 -28 -7 0
-23 -18 19 20 22 -24 -26 -27 28 -7 0
-23 -18 19 20 22 -24 -26 -27 -28 -7 0
-23 -18 19 20 -22 24 26 27 28 7 0
-23 -18 19 20 -22 24 26 27 -28 7 0
-23 -18 19 20 -22 24 26 -27 28 7 0
-23 -18 19 20 -22 24 26 -27 -28 -7 0
-23 -18 19 20 -22 24 -26 27 28 7 0
-23 -18 19 20 -22 24 -26 27 -28 -7 0
-23 -18 19 20 -22 24 -26 -27 28 -7 0
-23 -18 19 20 -22 24 -26 -27 -28 -7 0
-23 -18 19 20 -22 -24 26 27 28 7 0
-23 -18 19 20 -22 -24 26 27 -28 -7 0
-23 -18 19 20 -22 -24 26 -27 28 -7 0
-23 -18 19 20 -22 -24 26 -27 -28 -7 0
-23 -18 19 20 -22 -24 -26 27 28 -7 0
-23 -18 19 20 -22 -24 -26 27 -28 -7 0
-23 -18 19 20 -22 -24 -26 -27 28 -7 0
-23 -18 19 20 -22 -24 -26 -27 -28 -7 0
-23 -18 19 -20 22 24 26 27 28 7 0
-23 -18 19 -20 22 24 26 27 -28 7 0
-23 -18 19 -20 22 24 26 -27 28 7 0
-23 -18 19 -20 22 24 26 -27 -28 -7 0
-23 -18 19 -20 22 24 -26 27 28 7 0
-23 -18 19 -20 22 24 -26 27 -28 -7 0
-23 -18 19 -20 22 24 -26 -27 28 -7 0
-23 -18 19 -20 22 24 -26 -27 -28 -7 0
-23 -18 19 -20 22 -24 26 27 28 7 0
-23 -18 19 -20 22 -24 26 27 -28 -7 0
-23 -18 19 -20 22 -24 26 -27 28 -7 0
-23 -18 19 -20 22 -24 26 -27 -28 -7 0
-23 -18 19 -20 22 -24 -26 27 28 -7 0
-23 -18 19 -20 22 -24 -26 27 -28 -7 0
-23 -18 19 -20 22 -24 -26 -27 28 -7 0
-23 -18 19 -20 22 -24 -26 -27 -28 -7 0
-23 -18 19 -20 -22 24 26 27 28 7 0
-23 -18 19 -20 -22 24 26 27 -28 -7 0
-23 -18 19 -20 -22 24 26 -27 28 -7 0
-23 -18 19 -20 -22 24 26 -27 -28 -7 0
-23 -18 19 -20 -22 24 -26 27 28 -7 0
-23 -18 19 -20 -22 24 -26 27 -28 -7 0
-23 -18 19 -20 -22 24 -26 -27 28 -7 0
-23 -18 19 -20 -22 24 -26 -27 -28 -7 0
-23 -18 19 -20 -22 -24 26 27 28 -7 0
-23 -18 19 -20 -22 -24 26 27 -28 -7 0
-23 -18 19 -20 -22 -24 26 -27 28 -7 0
-23 -18 19 -20 -22 -24 26 -27 -28 -7 0
-23 -18 19 -20 -22 -24 -26 27 28 -7 0
-23 -18 19 -20 -22 -24 -26 27 -28 -7 0
-23 -18 19 -20 -22 -24 -26 -27 28 -7 0
-23 -18 19 -20 -22 -24 -26 -27 -28 -7 0
-23 -18 -19 20 22 24 26 27 28 7 0
-23 -18 -19 20 22 24 26 27 -28 7 0
-23 -18 -19 20 22 24 26 -27 28 7 0
-23 -18 -19 20 22 24 26 -27 -28 -7 0
-23 -18 -19 20 22 24 -26 27 28 7 0
-23 -18 -19 20 22 24 -26 27 -28 -7 0
-23 -18 -19 20 22 24 -26 -27 28 -7 0
-23 -18 -19 20 22 24 -26 -27 -28 -7 0
-23 -18 -19 20 22 -24 26 27 28 7 0
-23 -18 -19 20 22 -24 26 27 -28 -7 0
-23 -18 -19 20 22 -24 26 -27 28 -7 0
-23 -18 -19 20 22 -24 26 -27 -28 -7 0
-23 -18 -19 20 22 -24 -26 27 28 -7 0
-23 -18 -19 20 22 -24 -26 27 -28 -7 0
-23 -18 -19 20 22 -24 -26 -27 28 -7 0
-23 -18 -19 20 22 -24 -26 -27 -28 -7 0
-23 -18 -19 20 -22 24 26 27 28 7 0
-23 -18 -19 20 -22 24 26 27 -28 -7 0
-23 -18 -19 20 -22 24 26 -27 28 -7 0
-23 -18 -19 20 -22 24 26 -27 -28 -7 0
-23 -18 -19 20 -22 24 -26 27 28 -7 0
-23 -18 -19 20 -22 24 -26 27 -28 -7 0
-23 -18 -19 20 -22 24 -26 -27 28 -7 0
-23 -18 -19 20 -22 24 -26 -27 -28 -7 0
-23 -18 -19 20 -22 -24 26 27 28 -7 0
-23 -18 -19 20 -22 -24 26 27 -28 -7 0
-23 -18 -19 20 -22 -24 26 -27 28 -7 0
-23 -18 -19 20 -22 -24 26 -27 -28 -7 0
-23 -18 -19 20 -22 -24 -26 27 28 -7 0
-23 -18 -19 20 -22 -24 -26 27 -28 -7 0
-23 -18 -19 20 -22 -24 -26 -27 28 -7 0
-23 -18 -19 20 -22 -24 -26 -27 -28 -7 0
-23 -18 -19 -20 22 24 26 27 28 7 0
-23 -18 -19 -20 22 24 26 27 -28 -7 0
-23 -18 -19 -20 22 24 26 -27 28 -7 0
-23 -18 -19 -20 22 24 26 -27 -28 -7 0
-23 -18 -19 -20 22 24 -26 27 28 -7 0
-23 -18 -19 -20 22 24 -26 27 -28 -7 0
-23 -18 -19 -20 22 24 -26 -27 28 -7 0
-23 -18 -19 -20 22 24 -26 -27 -28 -7 0
-23 -18 -19 -20 22 -24 26 27 28 -7 0
-23 -18 -19 -20 22 -24 26 27 -28 -7 0
-23 -18 -19 -20 22 -24 26 -27 28 -7 0
-23 -18 -19 -20 22 -24 26 -27 -28 -7 0
-23 -18 -19 -20 22 -24 -26 27 28 -7 0
-23 -18 -19 -20 22 -24 -26 27 -28 -7 0
-23 -18 -19 -20 22 -24 -26 -27 28 -7 0
-23 -18 -19 -20 22 -24 -26 -27 -28 -7 0
-23 -18 -19 -20 -22 24 26 27 28 -7 0
-23 -18 -19 -20 -22 24 26 27 -28 -7 0
-23 -18 -19 -20 -22 24 26 -27 28 -7 0
-23 -18 -19 -20 -22 24 26 -27 -28 -7 0
-23 -18 -19 -20 -22 24 -26 27 28 -7 0
-23 -18 -19 -20 -22 24 -26 27 -28 -7 0
-23 -18 -19 -20 -22 24 -26 -27 28 -7 0
-23 -18 -19 -20 -22 24 -26 -27 -28 -7 0
-23 -18 -19 -20 -22 -24 26 27 28 -7 0
-23 -18 -19 -20 -22 -24 26 27 -28 -7 0
-23 -18 -19 -20 -22 -24 26 -27 28 -7 0
-23 -18 -19 -20 -22 -24 26 -27 -28 -7 0
-23 -18 -19 -20 -22 -24 -26 27 28 -7 0
-23 -18 -19 -20 -22 -24 -26 27 -28 -7 0
-23 -18 -19 -20 -22 -24 -26 -27 28 -7 0
-23 -18 -19 -20 -22 -24 -26 -27 -28 -7 0
24 19 20 17 23 21 27 28 25 -8 0
24 19 20 17 23 21 27 28 -25 -8 0
24 19 20 17 23 21 27 -28 25 -8 0
24 19 20 17 23 21 27 -28 -25 -8 0
24 19 20 17 23 21 -27 28 25 -8 0
24 19 20 17 23 21 -27 28 -25 -8 0
24 19 20 17 23 21 -27 -28 25 -8 0
24 19 20 17 23 21 -27 -28 -25 8 0
24 19 20 17 23 -21 27 28 25 -8 0
24 19 20 17 23 -21 27 28 -25 -8 0
24 19 20 17 23 -21 27 -28 25 -8 0
24 19 20 17 23 -21 27 -28 -25 8 0
24 19 20 17 23 -21 -27 28 25 -8 0
24 19 20 17 23 -21 -27 28 -25 8 0
24 19 20 17 23 -21 -27 -28 25 8 0
24 19 20 17 23 -21 -27 -28 -25 -8 0
24 19 20 17 -23 21 27 28 25 -8 0
24 19 20 17 -23 21 27 28 -25 -8 0
24 19 20 17 -23 21 27 -28 25 -8 0
24 19 20 17 -23 21 27 -28 -25 8 0
24 19 20 17 -23 21 -27 28 25 -8 0
24 19 20 17 -23 21 -27 28 -25 8 0
24 19 20 17 -23 21 -27 -28 25 8 0
24 19 20 17 -23 21 -27 -28 -25 -8 0
24 19 20 17 -23 -21 27 28 25 -8 0
24 19 20 17 -23 -21 27 28 -25 8 0
24 19 20 17 -23 -21 27 -28 25 8 0
24 19 20 17 -23 -21 27 -28 -25 -8 0
24 19 20 17 -23 -21 -27 28 25 8 0
24 19 20 17 -23 -21 -27 28 -25 -8 0
24 19 20 17 -23 -21 -27 -28 25 -8 0
24 19 20 17 -23 -21 -27 -28 -25 -8 0
24 19 20 -17 23 21 27 28 25 -8 0
24 19 20 -17 23 21 27 28 -25 -8 0
24 19 20 -17 23 21 27 -28 25 -8 0
24 19 20 -17 23 21 27 -28 -25 8 0
24 19 20 -17 23 21 -27 28 25 -8 0
24 19 20 -17 23 21 -27 28 -25 8 0
24 19 20 -17 23 21 -27 -28 25 8 0
24 19 20 -17 23 21 -27 -28 -25 -8 0
24 19 20 -17 23 -21 27 28 25 -8 0
24 19 20 -17 23 -21 27 28 -25 8 0
24 19 20 -17 23 -21 27 -28 25 8 0
24 19 20 -17 23 -21 27 -28 -25 -8 0
24 19 20 -17 23 -21 -27 28 25 8 0
24 19 20 -17 23 -21 -27 28 -25 -8 0
24 19 20 -17 23 -21 -27 -28 25 -8 0
24 19 20 -17 23 -21 -27 -28 -25 -8 0
24 19 20 -17 -23 21 27 28 25 -8 0
24 19 20 -17 -23 21 27 28 -25 8 0
24 19 20 -17 -23 21 27 -28 25 8 0
24 19 20 -17 -23 21 27 -28 -25 -8 0
24 19 20 -17 -23 21 -27 28 25 8 0
24 19 20 -17 -23 21 -27 28 -25 -8 0
24 19 20 -17 -23 21 -27 -28 25 -8 0
24 19 20 -17 -23 21 -27 -28 -25 -8 0
24 19 20 -17 -23 -21 27 28 25 8 0
24 19 20 -17 -23 -21 27 28 -25 -8 0
24 19 20 -17 -23 -21 27 -28 25 -8 0
24 19 20 -17 -23 -21 27 -28 -25 -8 0
24 19 20 -17 -23 -21 -27 28 25 -8 0
24 19 20 -17 -23 -21 -27 28 -25 -8 0
24 19 20 -17 -23 -21 -27 -28 25 -8 0
24 19 20 -17 -23 -21 -27 -28 -25 -8 0
24 19 -20 17 23 21 27 28 25 -8 0
24 19 -20 17 23 21 27 28 -25 -8 0
24 19 -20 17 23 21 27 -28 25 -8 0
24 19 -20 17 23 21 27 -28 -25 8 0
24 19 -20 17 23 21 -27 28 25 -8 0
24 19 -20 17 23 21 -27 28 -25 8 0
24 19 -20 17 23 21 -27 -28 25 8 0
24 19 -20 17 23 21 -27 -28 -25 -8 0
24 19 -20 17 23 -21 27 28 25 -8 0
24 19 -20 17 23 -21 27 28 -25 8 0
24 19 -20 17 23 -21 27 -28 25 8 0
24 19 -20 17 23 -21 27 -28 -25 -8 0
24 19 -20 17 23 -21 -27 28 25 8 0
24 19 -20 17 23 -21 -27 28 -25 -8 0
24 19 -20 17 23 -21 -27 -28 25 -8 0
24 19 -20 17 23 -21 -27 -28 -25 -8 0
24 19 -20 17 -23 21 27 28 25 -8 0
24 19 -20 17 -23 21 27 28 -25 8 0
24 19 -20 17 -23 21 27 -28 25 8 0
24 19 -20 17 -23 21 27 -28 -25 -8 0
24 19 -20 17 -23 21 -27 28 25 8 0
24 19 -20 17 -23 21 -27 28 -25 -8 0
24 19 -20 17 -23 21 -27 -28 25 -8 0
24 19 -20 17 -23 21 -27 -28 -25 -8 0
24 19 -20 17 -23 -21 27 28 25 8 0
24 19 -20 17 -23 -21 27 28 -25 -8 0
24 19 -20 17 -23 -21 27 -28 25 -8 0
24 19 -20 17 -23 -21 27 -28 -25 -8 0
24 19 -20 17 -23 -21 -27 28 25 -8 0
24 19 -20 17 -23 -21 -27 28 -25 -8 0
24 19 -20 17 -23 -21 -27 -28 25 -8 0
24 19 -20 17 -23 -21 -27 -28 -25 -8 0
24 19 -20 -17 23 21 27 28 25 -8 0
24 19 -20 -17 23 21 27 28 -25 8 0
24 19 -20 -17 23 21 27 -28 25 8 0
24 19 -20 -17 23 21 27 -28 -25 -8 0
24 19 -20 -17 23 21 -27 28 25 8 0
24 19 -20 -17 23 21 -27 28 -25 -8 0
24 19 -20 -17 23 21 -27 -28 25 -8 0
24 19 -20 -17 23 21 -27 -28 -25 -8 0
24 19 -20 -17 23 -21 27 28 25 8 0
24 19 -20 -17 23 -21 27 28 -25 -8 0
24 19 -20 -17 23 -21 27 -28 25 -8 0
24 19 -20 -17 23 -21 27 -28 -25 -8 0
24 19 -20 -17 23 -21 -27 28 25 -8 0
24 19 -20 -17 23 -21 -27 28 -25 -8 0
24 19 -20 -17 23 -21 -27 -28 25 -8 0
24 19 -20 -17 23 -21 -27 -28 -25 -8 0
24 19 -20 -17 -23 21 27 28 25 8 0
24 19 -20 -17 -23 21 27 28 -25 -8 0
24 19 -20 -17 -23 21 27 -28 25 -8 0
24 19 -20 -17 -23 21 27 -28 -25 -8 0
24 19 -20 -17 -23 21 -27 28 25 -8 0
24 19 -20 -17 -23 21 -27 28 -25 -8 0
24 19 -20 -17 -23 21 -27 -28 25 -8 0
24 19 -20 -17 -23 21 -27 -28 -25 -8 0
24 19 -20 -17 -23 -21 27 28 25 -8 0
24 19 -20 -17 -23 -21 27 28 -25 -8 0
24 19 -20 -17 -23 -21 27 -28 25 -8 0
24 19 -20 -17 -23 -21 27 -28 -25 -8 0
24 19 -20 -17 -23 -21 -27 28 25 -8 0
24 19 -20 -17 -23 -21 -27 28 -25 -8 0
24 19 -20 -17 -23 -21 -27 -28 25 -8 0
24 19 -20 -17 -23 -21 -27 -28 -25 -8 0
24 -19 20 17 23 21 27 28 25 -8 0
24 -19 20 17 23 21 27 28 -25 -8 0
24 -19 20 17 23 21 27 -28 25 -8 0
24 -19 20 17 23 21 27 -28 -25 8 0
24 -19 20 17 23 21 -27 28 25 -8 0
24 -19 20 17 23 21 -27 28 -25 8 0
24 -19 20 17 23 21 -27 -28 25 8 0
24 -19 20 17 23 21 -27 -28 -25 -8 0
24 -19 20 17 23 -21 27 28 25 -8 0
24 -19 20 17 23 -21 27 28 -25 8 0
24 -19 20 17 23 -21 27 -28 25 8 0
24 -19 20 17 23 -21 27 -28 -25 -8 0
24 -19 20 17 23 -21 -27 28 25 8 0
24 -19 20 17 23 -21 -27 28 -25 -8 0
24 -19 20 17 23 -21 -27 -28 25 -8 0
24 -19 20 17 23 -21 -27 -28 -25 -8 0
24 -19 20 17 -23 21 27 28 25 -8 0
24 -19 20 17 -23 21 27 28 -25 8 0
24 -19 20 17 -23 21 27 -28 25 8 0
24 -19 20 17 -23 21 27 -28 -25 -8 0
24 -19 20 17 -23 21 -27 28 25 8 0
24 -19 20 17 -23 21 -27 28 -25 -8 0
24 -19 20 17 -23 21 -27 -28 25 -8 0
24 -19 20 17 -23 21 -27 -28 -25 -8 0
24 -19 20 17 -23 -21 27 28 25 8 0
24 -19 20 17 -23 -21 27 28 -25 -8 0
24 -19 20 17 -23 -21 27 -28 25 -8 0
24 -19 20 17 -23 -21 27 -28 -25 -8 0
24 -19 20 17 -23 -21 -27 28 25 -8 0
24 -19 20 17 -23 -21 -27 28 -25 -8 0
24 -19 20 17 -23 -21 -27 -28 25 -8 0
24 -19 20 17 -23 -21 -27 -28 -25 -8 0
24 -19 20 -17 23 21 27 28 25 -8 0
24 -19 20 -17 23 21 27 28 -25 8 0
24 -19 20 -17 23 21 27 -28 25 8 0
24 -19 20 -17 23 21 27 -28 -25 -8 0
24 -19 20 -17 23 21 -27 28 25 8 0
24 -19 20 -17 23 21 -27 28 -25 -8 0
24 -19 20 -17 23 21 -27 -28 25 -8 0
24 -19 20 -17 23 21 -27 -28 -25 -8 0
24 -19 20 -17 23 -21 27 28 25 8 0
24 -19 20 -17 23 -21 27 28 -25 -8 0
24 -19 20 -17 23 -21 27 -28 25 -8 0
24 -19 20 -17 23 -21 27 -28 -25 -8 0
24 -19 20 -17 23 -21 -27 28 25 -8 0
24 -19 20 -17 23 -21 -27 28 -25 -8 0
24 -19 20 -17 23 -21 -27 -28 25 -8 0
24 -19 20 -17 23 -21 -27 -28 -25 -8 0
24 -19 20 -17 -23 21 27 28 25 8 0
24 -19 20 -17 -23 21 27 28 -25 -8 0
24 -19 20 -17 -23 21 27 -28 25 -8 0
24 -19 20 -17 -23 21 27 -28 -25 -8 0
24 -19 20 -17 -23 21 -27 28 25 -8 0
24 -19 20 -17 -23 21 -27 28 -25 -8 0
24 -19 20 -17 -23 21 -27 -28 25 -8 0
24 -19 20 -17 -23 21 -27 -28 -25 -8 0
24 -19 20 -17 -23 -21 27 28 25 -8 0
24 -19 20 -17 -23 -21 27 28 -25 -8 0
24 -19 20 -17 -23 -21 27 -28 25 -8 0
24 -19 20 -17 -23 -21 27 -28 -25 -8 0
24 -19 20 -17 -23 -21 -27 28 25 -8 0
24 -19 20 -17 -23 -21 -27 28 -25 -8 0
24 -19 20 -17 -23 -21 -27 -28 25 -8 0
24 -19 20 -17 -23 -21 -27 -28 -25 -8 0
24 -19 -20 17 23 21 27 28 25 -8 0
24 -19 -20 17 23 21 27 28 -25 8 0
24 -19 -20 17 23 21 27 -28 25 8 0
24 -19 -20 17 23 21 27 -28 -25 -8 0
24 -19 -20 17 23 21 -27 28 25 8 0
24 -19 -20 17 23 21 -27 28 -25 -8 0
24 -19 -20 17 23 21 -27 -28 25 -8 0
24 -19 -20 17 23 21 -27 -28 -25 -8 0
24 -19 -20 17 23 -21 27 28 25 8 0
24 -19 -20 17 23 -21 27 28 -25 -8 0
24 -19 -20 17 23 -21 27 -28 25 -8 0
24 -19 -20 17 23 -21 27 -28 -25 -8 0
24 -19 -20 17 23 -21 -27 28 25 -8 0
24 -19 -20 17 23 -21 -27 28 -25 -8 0
24 -19 -20 17 23 -21 -27 -28 25 -8 0
24 -19 -20 17 23 -21 -27 -28 -25 -8 0
24 -19 -20 17 -23 21 27 28 25 8 0
24 -19 -20 17 -23 21 27 28 -25 -8 0
24 -19 -20 17 -23 21 27 -28 25 -8 0
24 -19 -20 17 -23 21 27 -28 -25 -8 0
24 -19 -20 17 -23 21 -27 28 25 -8 0
24 -19 -20 17 -23 21 -27 28 -25 -8 0
24 -19 -20 17 -23 21 -27 -28 25 -8 0
24 -19 -20 17 -23 21 -27 -28 -25 -8 0
24 -19 -20 17 -23 -21 27 28 25 -8 0
24 -19 -20 17 -23 -21 27 28 -25 -8 0
24 -19 -20 17 -23 -21 27 -28 25 -8 0
24 -19 -20 17 -23 -21 27 -28 -25 -8 0
24 -19 -20 17 -23 -21 -27 28 25 -8 0
24 -19 -20 17 -23 -21 -27 28 -25 -8 0
24 -19 -20 17 -23 -21 -27 -28 25 -8 0
24 -19 -20 17 -23 -21 -27 -28 -25 -8 0
24 -19 -20 -17 23 21 27 28 25 8 0
24 -19 -20 -17 23 21 27 28 -25 -8 0
24 -19 -20 -17 23 21 27 -28 25 -8 0
24 -19 -20 -17 23 21 27 -28 -25 -8 0
24 -19 -20 -17 23 21 -27 28 25 -8 0
24 -19 -20 -17 23 21 -27 28 -25 -8 0
24 -19 -20 -17 23 21 -27 -28 25 -8 0
24 -19 -20 -17 23 21 -27 -28 -25 -8 0
24 -19 -20 -17 23 -21 27 28 25 -8 0
24 -19 -20 -17 23 -21 27 28 -25 -8 0
24 -19 -20 -17 23 -21 27 -28 25 -8 0
24 -19 -20 -17 23 -21 27 -28 -25 -8 0
24 -19 -20 -17 23 -21 -27 28 25 -8 0
24 -19 -20 -17 23 -21 -27 28 -25 -8 0
24 -19 -20 -17 23 -21 -27 -28 25 -8 0
24 -19 -20 -17 23 -21 -27 -28 -25 -8 0
24 -19 -20 -17 -23 21 27 28 25 -8 0
24 -19 -20 -17 -23 21 27 28 -25 -8 0
24 -19 -20 -17 -23 21 27 -28 25 -8 0
24 -19 -20 -17 -23 21 27 -28 -25 -8 0
24 -19 -20 -17 -23 21 -27 28 25 -8 0
24 -19 -20 -17 -23 21 -27 28 -25 -8 0
24 -19 -20 -17 -23 21 -27 -28 25 -8 0
24 -19 -20 -17 -23 21 -27 -28 -25 -8 0
24 -19 -20 -17 -23 -21 27 28 25 -8 0
24 -19 -20 -17 -23 -21 27 28 -25 -8 0
24 -19 -20 -17 -23 -21 27 -28 25 -8 0
24 -19 -20 -17 -23 -21 27 -28 -25 -8 0
24 -19 -20 -17 -23 -21 -27 28 25 -8 0
24 -19 -20 -17 -23 -21 -27 28 -25 -8 0
24 -19 -20 -17 -23 -21 -27 -28 25 -8 0
24 -19 -20 -17 -23 -21 -27 -28 -25 -8 0
-24 19 20 17 23 21 27 28 25 -8 0
-24 19 20 17 23 21 27 28 -25 -8 0
-24 19 20 17 23 21 27 -28 25 -8 0
-24 19 20 17 23 21 27 -28 -25 8 0
-24 19 20 17 23 21 -27 28 25 -8 0
-24 19 20 17 23 21 -27 28 -25 8 0
-24 19 20 17 23 21 -27 -28 25 8 0
-24 19 20 17 23 21 -27 -28 -25 8 0
-24 19 20 17 23 -21 27 28 25 -8 0
-24 19 20 17 23 -21 27 28 -25 8 0
-24 19 20 17 23 -21 27 -28 25 8 0
-24 19 20 17 23 -21 27 -28 -25 8 0
-24 19 20 17 23 -21 -27 28 25 8 0
-24 19 20 17 23 -21 -27 28 -25 8 0
-24 19 20 17 23 -21 -27 -28 25 8 0
-24 19 20 17 23 -21 -27 -28 -25 -8 0
-24 19 20 17 -23 21 27 28 25 -8 0
-24 19 20 17 -23 21 27 28 -25 8 0
-24 19 20 17 -23 21 27 -28 25 8 0
-24 19 20 17 -23 21 27 -28 -25 8 0
-24 19 20 17 -23 21 -27 28 25 8 0
-24 19 20 17 -23 21 -27 28 -25 8 0
-24 19 20 17 -23 21 -27 -28 25 8 0
-24 19 20 17 -23 21 -27 -28 -25 -8 0
-24 19 20 17 -23 -21 27 28 25 8 0
-24 19 20 17 -23 -21 27 28 -25 8 0
-24 19 20 17 -23 -21 27 -28 25 8 0
-24 19 20 17 -23 -21 27 -28 -25 -8 0
-24 19 20 17 -23 -21 -27 28 25 8 0
-24 19 20 17 -23 -21 -27 28 -25 -8 0
-24 19 20 17 -23 -21 -27 -28 25 -8 0
-24 19 20 17 -23 -21 -27 -28 -25 -8 0
-24 19 20 -17 23 21 27 28 25 -8 0
-24 19 20 -17 23 21 27 28 -25 8 0
-24 19 20 -17 23 21 27 -28 25 8 0
-24 19 20 -17 23 21 27 -28 -25 8 0
-24 19 20 -17 23 21 -27 28 25 8 0
-24 19 20 -17 23 21 -27 28 -25 8 0
-24 19 20 -17 23 21 -27 -28 25 8 0
-24 19 20 -17 23 21 -27 -28 -25 -8 0
-24 19 20 -17 23 -21 27 28 25 8 0
-24 19 20 -17 23 -21 27 28 -25 8 0
-24 19 20 -17 23 -21 27 -28 25 8 0
-24 19 20 -17 23 -21 27 -28 -25 -8 0
-24 19 20 -17 23 -21 -27 28 25 8 0
-24 19 20 -17 23 -21 -27 28 -25 -8 0
-24 19 20 -17 23 -21 -27 -28 25 -8 0
-24 19 20 -17 23 -21 -27 -28 -25 -8 0
-24 19 20 -17 -23 21 27 28 25 8 0
-24 19 20 -17 -23 21 27 28 -25 8 0
-24 19 20 -17 -23 21 27 -28 25 8 0
-24 19 20 -17 -23 21 27 -28 -25 -8 0
-24 19 20 -17 -23 21 -27 28 25 8 0
-24 19 20 -17 -23 21 -27 28 -25 -8 0
-24 19 20 -17 -23 21 -27 -28 25 -8 0
-24 19 20 -17 -23 21 -27 -28 -25 -8 0
-24 19 20 -17 -23 -21 27 28 25 8 0
-24 19 20 -17 -23 -21 27 28 -25 -8 0
-24 19 20 -17 -23 -21 27 -28 25 -8 0
-24 19 20 -17 -23 -21 27 -28 -25 -8 0
-24 19 20 -17 -23 -21 -27 28 25 -8 0
-24 19 20 -17 -23 -21 -27 28 -25 -8 0
-24 19 20 -17 -23 -21 -27 -28 25 -8 0
-24 19 20 -17 -23 -21 -27 -28 -25 -8 0
-24 19 -20 17 23 21 27 28 25 -8 0
-24 19 -20 17 23 21 27 28 -25 8 0
-24 19 -20 17 23 21 27 -28 25 8 0
-24 19 -20 17 23 21 27 -28 -25 8 0
-24 19 -20 17 23 21 -27 28 25 8 0
-24 19 -20 17 23 21 -27 28 -25 8 0
-24 19 -20 17 23 21 -27 -28 25 8 0
-24 19 -20 17 23 21 -27 -28 -25 -8 0
-24 19 -20 17 23 -21 27 28 25 8 0
-24 19 -20 17 23 -21 27 28 -25 8 0
-24 19 -20 17 23 -21 27 -28 25 8 0
-24 19 -20 17 23 -21 27 -28 -25 -8 0
-24 19 -20 17 23 -21 -27 28 25 8 0
-24 19 -20 17 23 -21 -27 28 -25 -8 0
-24 19 -20 17 23 -21 -27 -28 25 -8 0
-24 19 -20 17 23 -21 -27 -28 -25 -8 0
-24 19 -20 17 -23 21 27 28 25 8 0
-24 19 -20 17 -23 21 27 28 -25 8 0
-24 19 -20 17 -23 21 27 -28 25 8 0
-24 19 -20 17 -23 21 27 -28 -25 -8 0
-24 19 -20 17 -23 21 -27 28 25 8 0
-24 19 -20 17 -23 21 -27 28 -25 -8 0
-24 19 -20 17 -23 21 -27 -28 25 -8 0
-24 19 -20 17 -23 21 -27 -28 -25 -8 0
-24 19 -20 17 -23 -21 27 28 25 8 0
-24 19 -20 17 -23 -21 27 28 -25 -8 0
-24 19 -20 17 -23 -21 27 -28 25 -8 0
-24 19 -20 17 -23 -21 27 -28 -25 -8 0
-24 19 -20 17 -23 -21 -27 28 25 -8 0
-24 19 -20 17 -23 -21 -27 28 -25 -8 0
-24 19 -20 17 -23 -21 -27 -28 25 -8 0
-24 19 -20 17 -23 -21 -27 -28 -25 -8 0
-24 19 -20 -17 23 21 27 28 25 8 0
-24 19 -20 -17 23 21 27 28 -25 8 0
-24 19 -20 -17 23 21 27 -28 25 8 0
-24 19 -20 -17 23 21 27 -28 -25 -8 0
-24 19 -20 -17 23 21 -27 28 25 8 0
-24 19 -20 -17 23 21 -27 28 -25 -8 0
-24 19 -20 -17 23 21 -27 -28 25 -8 0
-24 19 -20 -17 23 21 -27 -28 -25 -8 0
-24 19 -20 -17 23 -21 27 28 25 8 0
-24 19 -20 -17 23 -21 27 28 -25 -8 0
-24 19 -20 -17 23 -21 27 -28 25 -8 0
-24 19 -20 -17 23 -21 27 -28 -25 -8 0
-24 19 -20 -17 23 -21 -27 28 25 -8 0
-24 19 -20 -17 23 -21 -27 28 -25 -8 0
-24 19 -20 -17 23 -21 -27 -28 25 -8 0
-24 19 -20 -17 23 -21 -27 -28 -25 -8 0
-24 19 -20 -17 -23 21 27 28 25 8 0
-24 19 -20 -17 -23 21 27 28 -25 -8 0
-24 19 -20 -17 -23 21 27 -28 25 -8 0
-24 19 -20 -17 -23 21 27 -28 -25 -8 0
-24 19 -20 -17 -23 21 -27 28 25 -8 0
-24 19 -20 -17 -23 21 -27 28 -25 -8 0
-24 19 -20 -17 -23 21 -27 -28 25 -8 0
-24 19 -20 -17 -23 21 -27 -28 -25 -8 0
-24 19 -20 -17 -23 -21 27 28 25 -8 0
-24 19 -20 -17 -23 -21 27 28 -25 -8 0
-24 19 -20 -17 -23 -21 27 -28 25 -8 0
-24 19 -20 -17 -23 -21 27 -28 -25 -8 0
-24 19 -20 -17 -23 -21 -27 28 25 -8 0
-24 19 -20 -17 -23 -21 -27 28 -25 -8 0
-24 19 -20 -17 -23 -21 -27 -28 25 -8 0
-24 19 -20 -17 -23 -21 -27 -28 -25 -8 0
-24 -19 20 17 23 21 27 28 25 -8 0
-24 -19 20 17 23 21 27 28 -25 8 0
-24 -19 20 17 23 21 27 -28 25 8 0
-24 -19 20 17 23 21 27 -28 -25 8 0
-24 -19 20 17 23 21 -27 28 25 8 0
-24 -19 20 17 23 21 -27 28 -25 8 0
-24 -19 20 17 23 21 -27 -28 25 8 0
-24 -19 20 17 23 21 -27 -28 -25 -8 0
-24 -19 20 17 23 -21 27 28 25 8 0
-24 -19 20 17 23 -21 27 28 -25 8 0
-24 -19 20 17 23 -21 27 -28 25 8 0
-24 -19 20 17 23 -21 27 -28 -25 -8 0
-24 -19 20 17 23 -21 -27 28 25 8 0
-24 -19 20 17 23 -21 -27 28 -25 -8 0
-24 -19 20 17 23 -21 -27 -28 25 -8 0
-24 -19 20 17 23 -21 -27 -28 -25 -8 0
-24 -19 20 17 -23 21 27 28 25 8 0
-24 -19 20 17 -23 21 27 28 -25 8 0
-24 -19 20 17 -23 21 27 -28 25 8 0
-24 -19 20 17 -23 21 27 -28 -25 -8 0
-24 -19 20 17 -23 21 -27 28 25 8 0
-24 -19 20 17 -23 21 -27 28 -25 -8 0
-24 -19 20 17 -23 21 -27 -28 25 -8 0
-24 -19 20 17 -23 21 -27 -28 -25 -8 0
-24 -19 20 17 -23 -21 27 28 25 8 0
-24 -19 20 17 -23 -21 27 28 -25 -8 0
-24 -19 20 17 -23 -21 27 -28 25 -8 0
-24 -19 20 17 -23 -21 27 -28 -25 -8 0
-24 -19 20 17 -23 -21 -27 28 25 -8 0
-24 -19 20 17 -23 -21 -27 28 -25 -8 0
-24 -19 20 17 -23 -21 -27 -28 25 -8 0
-24 -19 20 17 -23 -21 -27 -28 -25 -8 0
-24 -19 20 -17 23 21 27 28 25 8 0
-24 -19 20 -17 23 21 27 28 -25 8 0
-24 -19 20 -17 23 21 27 -28 25 8 0
-24 -19 20 -17 23 21 27 -28 -25 -8 0
-24 -19 20 -17 23 21 -27 28 25 8 0
-24 -19 20 -17 23 21 -27 28 -25 -8 0
-24 -19 20 -17 23 21 -27 -28 25 -8 0
-24 -19 20 -17 23 21 -27 -28 -25 -8 0
-24 -19 20 -17 23 -21 27 28 25 8 0
-24 -19 20 -17 23 -21 27 28 -25 -8 0
-24 -19 20 -17 23 -21 27 -28 25 -8 0
-24 -19 20 -17 23 -21 27 -28 -25 -8 0
-24 -19 20 -17 23 -21 -27 28 25 -8 0
-24 -19 20 -17 23 -21 -27 28 -25 -8 0
-24 -19 20 -17 23 -21 -27 -28 25 -8 0
-24 -19 20 -17 23 -21 -27 -28 -25 -8 0
-24 -19 20 -17 -23 21 27 28 25 8 0
-24 -19 20 -17 -23 21 27 28 -25 -8 0
-24 -19 20 -17 -23 21 27 -28 25 -8 0
-24 -19 20 -17 -23 21 27 -28 -25 -8 0
-24 -19 20 -17 -23 21 -27 28 25 -8 0
-24 -19 20 -17 -23 21 -27 28 -25 -8 0
-24 -19 20 -17 -23 21 -27 -28 25 -8 0
-24 -19 20 -17 -23 21 -27 -28 -25 -8 0
-24 -19 20 -17 -23 -21 27 28 25 -8 0
-24 -19 20 -17 -23 -21 27 28 -25 -8 0
-24 -19 20 -17 -23 -21 27 -28 25 -8 0
-24 -19 20 -17 -23 -21 27 -28 -25 -8 0
-24 -19 20 -17 -23 -21 -27 28 25 -8 0
-24 -19 20 -17 -23 -21 -27 28 -25 -8 0
-24 -19 20 -17 -23 -21 -27 -28 25 -8 0
-24 -19 20 -17 -23 -21 -27 -28 -25 -8 0
-24 -19 -20 17 23 21 27 28 25 8 0
-24 -19 -20 17 23 21 27 28 -25 8 0
-24 -19 -20 17 23 21 27 -28 25 8 0
-24 -19 -20 17 23 21 27 -28 -25 -8 0
-24 -19 -20 17 23 21 -27 28 25 8 0
-24 -19 -20 17 23 21 -27 28 -25 -8 0
-24 -19 -20 17 23 21 -27 -28 25 -8 0
-24 -19 -20 17 23 21 -27 -28 -25 -8 0
-24 -19 -20 17 23 -21 27 28 25 8 0
-24 -19 -20 17 23 -21 27 28 -25 -8 0
-24 -19 -20 17 23 -21 27 -28 25 -8 0
-24 -19 -20 17 23 -21 27 -28 -25 -8 0
-24 -19 -20 17 23 -21 -27 28 25 -8 0
-24 -19 -20 17 23 -21 -27 28 -25 -8 0
-24 -19 -20 17 23 -21 -27 -28 25 -8 0
-24 -19 -20 17 23 -21 -27 -28 -25 -8 0
-24 -19 -20 17 -23 21 27 28 25 8 0
-24 -19 -20 17 -23 21 27 28 -25 -8 0
-24 -19 -20 17 -23 21 27 -28 25 -8 0
-24 -19 -20 17 -23 21 27 -28 -25 -8 0
-24 -19 -20 17 -23 21 -27 28 25 -8 0
-24 -19 -20 17 -23 21 -27 28 -25 -8 0
-24 -19 -20 17 -23 21 -27 -28 25 -8 0
-24 -19 -20 17 -23 21 -27 -28 -25 -8 0
-24 -19 -20 17 -23 -21 27 28 25 -8 0
-24 -19 -20 17 -23 -21 27 28 -25 -8 0
-24 -19 -20 17 -23 -21 27 -28 25 -8 0
-24 -19 -20 17 -23 -21 27 -28 -25 -8 0
-24 -19 -20 17 -23 -21 -27 28 25 -8 0
-24 -19 -20 17 -23 -21 -27 28 -25 -8 0
-24 -19 -20 17 -23 -21 -27 -28 25 -8 0
-24 -19 -20 17 -23 -21 -27 -28 -25 -8 0
-24 -19 -20 -17 23 21 27 28 25 8 0
-24 -19 -20 -17 23 21 27 28 -25 -8 0
-24 -19 -20 -17 23 21 27 -28 25 -8 0
-24 -19 -20 -17 23 21 27 -28 -25 -8 0
-24 -19 -20 -17 23 21 -27 28 25 -8 0
-24 -19 -20 -17 23 21 -27 28 -25 -8 0
-24 -19 -20 -17 23 21 -27 -28 25 -8 0
-24 -19 -20 -17 23 21 -27 -28 -25 -8 0
-24 -19 -20 -17 23 -21 27 28 25 -8 0
-24 -19 -20 -17 23 -21 27 28 -25 -8 0
-24 -19 -20 -17 23 -21 27 -28 25 -8 0
-24 -19 -20 -17 23 -21 27 -28 -25 -8 0
-24 -19 -20 -17 23 -21 -27 28 25 -8 0
-24 -19 -20 -17 23 -21 -27 28 -25 -8 0
-24 -19 -20 -17 23 -21 -27 -28 25 -8 0
-24 -19 -20 -17 23 -21 -27 -28 -25 -8 0
-24 -19 -20 -17 -23 21 27 28 25 -8 0
-24 -19 -20 -17 -23 21 27 28 -25 -8 0
-24 -19 -20 -17 -23 21 27 -28 25 -8 0
-24 -19 -20 -17 -23 21 27 -28 -25 -8 0
-24 -19 -20 -17 -23 21 -27 28 25 -8 0
-24 -19 -20 -17 -23 21 -27 28 -25 -8 0
-24 -19 -20 -17 -23 21 -27 -28 25 -8 0
-24 -19 -20 -17 -23 21 -27 -28 -25 -8 0
-24 -19 -20 -17 -23 -21 27 28 25 -8 0
-24 -19 -20 -17 -23 -21 27 28 -25 -8 0
-24 -19 -20 -17 -23 -21 27 -28 25 -8 0
-24 -19 -20 -17 -23 -21 27 -28 -25 -8 0
-24 -19 -20 -17 -23 -21 -27 28 25 -8 0
-24 -19 -20 -17 -23 -21 -27 28 -25 -8 0
-24 -19 -20 -17 -23 -21 -27 -28 25 -8 0
-24 -19 -20 -17 -23 -21 -27 -28 -25 -8 0
25 24 21 22 28 26 32 29 30 -9 0
25 24 21 22 28 26 32 29 -30 -9 0
25 24 21 22 28 26 32 -29 30 -9 0
25 24 21 22 28 26 32 -29 -30 -9 0
25 24 21 22 28 26 -32 29 30 -9 0
25 24 21 22 28 26 -32 29 -30 -9 0
25 24 21 22 28 26 -32 -29 30 -9 0
25 24 21 22 28 26 -32 -29 -30 9 0
25 24 21 22 28 -26 32 29 30 -9 0
25 24 21 22 28 -26 32 29 -30 -9 0
25 24 21 22 28 -26 32 -29 30 -9 0
25 24 21 22 28 -26 32 -29 -30 9 0
25 24 21 22 28 -26 -32 29 30 -9 0
25 24 21 22 28 -26 -32 29 -30 9 0
25 24 21 22 28 -26 -32 -29 30 9 0
25 24 21 22 28 -26 -32 -29 -30 -9 0
25 24 21 22 -28 26 32 29 30 -9 0
25 24 21 22 -28 26 32 29 -30 -9 0
25 24 21 22 -28 26 32 -29 30 -9 0
25 24 21 22 -28 26 32 -29 -30 9 0
25 24 21 22 -28 26 -32 29 30 -9 0
25 24 21 22 -28 26 -32 29 -30 9 0
25 24 21 22 -28 26 -32 -29 30 9 0
25 24 21 22 -28 26 -32 -29 -30 -9 0
25 24 21 22 -28 -26 32 29 30 -9 0
25 24 21 22 -28 -26 32 29 -30 9 0
25 24 21 22 -28 -26 32 -29 30 9 0
25 24 21 22 -28 -26 32 -29 -30 -9 0
25 24 21 22 -28 -26 -32 29 30 9 0
25 24 21 22 -28 -26 -32 29 -30 -9 0
25 24 21 22 -28 -26 -32 -29 30 -9 0
25 24 21 22 -28 -26 -32 -29 -30 -9 0
25 24 21 -22 28 26 32 29 30 -9 0
25 24 21 -22 28 26 32 29 -30 -9 0
25 24 21 -22 28 26 32 -29 30 -9 0
25 24 21 -22 28 26 32 -29 -30 9 0
25 24 21 -22 28 26 -32 29 30 -9 0
25 24 21 -22 28 26 -32 29 -30 9 0
25 24 21 -22 28 26 -32 -29 30 9 0
25 24 21 -22 28 26 -32 -29 -30 -9 0
25 24 21 -22 28 -26 32 29 30 -9 0
25 24 21 -22 28 -26 32 29 -30 9 0
25 24 21 -22 28 -26 32 -29 30 9 0
25 24 21 -22 28 -26 32 -29 -30 -9 0
25 24 21 -22 28 -26 -32 29 30 9 0
25 24 21 -22 28 -26 -32 29 -30 -9 0
25 24 21 -22 28 -26 -32 -29 30 -9 0
25 24 21 -22 28 -26 -32 -29 -30 -9 0
25 24 21 -22 -28 26 32 29 30 -9 0
25 24 21 -22 -28 26 32 29 -30 9 0
25 24 21 -22 -28 26 32 -29 30 9 0
25 24 21 -22 -28 26 32 -29 -30 -9 0
25 24 21 -22 -28 26 -32 29 30 9 0
25 24 21 -22 -28 26 -32 29 -30 -9 0
25 24 21 -22 -28 26 -32 -29 30 -9 0
25 24 21 -22 -28 26 -32 -29 -30 -9 0
25 24 21 -22 -28 -26 32 29 30 9 0
25 24 21 -22 -28 -26 32 29 -30 -9 0
25 24 21 -22 -28 -26 32 -29 30 -9 0
25 24 21 -22 -28 -26 32 -29 -30 -9 0
25 24 21 -22 -28 -26 -32 29 30 -9 0
25 24 21 -22 -28 -26 -32 29 -30 -9 0
25 24 21 -22 -28 -26 -32 -29 30 -9 0
25 24 21 -22 -28 -26 -32 -29 -30 -9 0
25 24 -21 22 28 26 32 29 30 -9 0
25 24 -21 22 28 26 32 29 -30 -9 0
25 24 -21 22 28 26 32 -29 30 -9 0
25 24 -21 22 28 26 32 -29 -30 9 0
25 24 -21 22 28 26 -32 29 30 -9 0
25 24 -21 22 28 26 -32 29 -30 9 0
25 24 -21 22 28 26 -32 -29 30 9 0
25 24 -21 22 28 26 -32 -29 -30 -9 0
25 24 -21 22 28 -26 32 29 30 -9 0
25 24 -21 22 28 -26 32 29 -30 9 0
25 24 -21 22 28 -26 32 -29 30 9 0
25 24 -21 22 28 -26 32 -29 -30 -9 0
25 24 -21 22 28 -26 -32 29 30 9 0
25 24 -21 22 28 -26 -32 29 -30 -9 0
25 24 -21 22 28 -26 -32 -29 30 -9 0
25 24 -21 22 28 -26 -32 -29 -30 -9 0
25 24 -21 22 -28 26 32 29 30 -9 0
25 24 -21 22 -28 26 32 29 -30 9 0
25 24 -21 22 -28 26 32 -29 30 9 0
25 24 -21 22 -28 26 32 -29 -30 -9 0
25 24 -21 22 -28 26 -32 29 30 9 0
25 24 -21 22 -28 26 -32 29 -30 -9 0
25 24 -21 22 -28 26 -32 -29 30 -9 0
25 24 -21 22 -28 26 -32 -29 -30 -9 0
25 24 -21 22 -28 -26 32 29 30 9 0
25 24 -21 22 -28 -26 32 29 -30 -9 0
25 24 -21 22 -28 -26 32 -29 30 -9 0
25 24 -21 22 -28 -26 32 -29 -30 -9 0
25 24 -21 22 -28 -26 -32 29 30 -9 0
25 24 -21 22 -28 -26 -32 29 -30 -9 0
25 24 -21 22 -28 -26 -32 -29 30 -9 0
25 24 -21 22 -28 -26 -32 -29 -30 -9 0
25 24 -21 -22 28 26 32 29 30 -9 0
25 24 -21 -22 28 26 32 29 -30 9 0
25 24 -21 -22 28 26 32 -29 30 9 0
25 24 -21 -22 28 26 32 -29 -30 -9 0
25 24 -21 -22 28 26 -32 29 30 9 0
25 24 -21 -22 28 26 -32 29 -30 -9 0
25 24 -21 -22 28 26 -32 -29 30 -9 0
25 24 -21 -22 28 26 -32 -29 -30 -9 0
25 24 -21 -22 28 -26 32 29 30 9 0
25 24 -21 -22 28 -26 32 29 -30 -9 0
25 24 -21 -22 28 -26 32 -29 30 -9 0
25 24 -21 -22 28 -26 32 -29 -30 -9 0
25 24 -21 -22 28 -26 -32 29 30 -9 0
25 24 -21 -22 28 -26 -32 29 -30 -9 0
25 24 -21 -22 28 -26 -32 -29 30 -9 0
25 24 -21 -22 28 -26 -32 -29 -30 -9 0
25 24 -21 -22 -28 26 32 29 30 9 0
25 24 -21 -22 -28 26 32 29 -30 -9 0
25 24 -21 -22 -28 26 32 -29 30 -9 0
25 24 -21 -22 -28 26 32 -29 -30 -9 0
25 24 -21 -22 -28 26 -32 29 30 -9 0
25 24 -21 -22 -28 26 -32 29 -30 -9 0
25 24 -21 -22 -28 26 -32 -29 30 -9 0
25 24 -21 -22 -28 26 -32 -29 -30 -9 0
25 24 -21 -22 -28 -26 32 29 30 -9 0
25 24 -21 -22 -28 -26 32 29 -30 -9 0
25 24 -21 -22 -28 -26 32 -29 30 -9 0
25 24 -21 -22 -28 -26 32 -29 -30 -9 0
25 24 -21 -22 -28 -26 -32 29 30 -9 0
25 24 -21 -22 -28 -26 -32 29 -30 -9 0
25 24 -21 -22 -28 -26 -32 -29 30 -9 0
25 24 -21 -22 -28 -26 -32 -29 -30 -9 0
25 -24 21 22 28 26 32 29 30 -9 0
25 -24 21 22 28 26 32 29 -30 -9 0
25 -24 21 22 28 26 32 -29 30 -9 0
25 -24 21 22 28 26 32 -29 -30 9 0
25 -24 21 22 28 26 -32 29 30 -9 0
25 -24 21 22 28 26 -32 29 -30 9 0
25 -24 21 22 28 26 -32 -29 30 9 0
25 -24 21 22 28 26 -32 -29 -30 -9 0
25 -24 21 22 28 -26 32 29 30 -9 0
25 -24 21 22 28 -26 32 29 -30 9 0
25 -24 21 22 28 -26 32 -29 30 9 0
25 -24 21 22 28 -26 32 -29 -30 -9 0
25 -24 21 22 28 -26 -32 29 30 9 0
25 -24 21 22 28 -26 -32 29 -30 -9 0
25 -24 21 22 28 -26 -32 -29 30 -9 0
25 -24 21 22 28 -26 -32 -29 -30 -9 0
25 -24 21 22 -28 26 32 29 30 -9 0
25 -24 21 22 -28 26 32 29 -30 9 0
25 -24 21 22 -28 26 32 -29 30 9 0
25 -24 21 22 -28 26 32 -29 -30 -9 0
25 -24 21 22 -28 26 -32 29 30 9 0
25 -24 21 22 -28 26 -32 29 -30 -9 0
25 -24 21 22 -28 26 -32 -29 30 -9 0
25 -24 21 22 -28 26 -32 -29 -30 -9 0
25 -24 21 22 -28 -26 32 29 30 9 0
25 -24 21 22 -28 -26 32 29 -30 -9 0
25 -24 21 22 -28 -26 32 -29 30 -9 0
25 -24 21 22 -28 -26 32 -29 -30 -9 0
25 -24 21 22 -28 -26 -32 29 30 -9 0
25 -24 21 22 -28 -26 -32 29 -30 -9 0
25 -24 21 22 -28 -26 -32 -29 30 -9 0
25 -24 21 22 -28 -26 -32 -29 -30 -9 0
25 -24 21 -22 28 26 32 29 30 -9 0
25 -24 21 -22 28 26 32 29 -30 9 0
25 -24 21 -22 28 26 32 -29 30 9 0
25 -24 21 -22 28 26 32 -29 -30 -9 0
25 -24 21 -22 28 26 -32 29 30 9 0
25 -24 21 -22 28 26 -32 29 -30 -9 0
25 -24 21 -22 28 26 -32 -29 30 -9 0
25 -24 21 -22 28 26 -32 -29 -30 -9 0
25 -24 21 -22 28 -26 32 29 30 9 0
25 -24 21 -22 28 -26 32 29 -30 -9 0
25 -24 21 -22 28 -26 32 -29 30 -9 0
25 -24 21 -22 28 -26 32 -29 -30 -9 0
25 -24 21 -22 28 -26 -32 29 30 -9 0
25 -24 21 -22 28 -26 -32 29 -30 -9 0
25 -24 21 -22 28 -26 -32 -29 30 -9 0
25 -24 21 -22 28 -26 -32 -29 -30 -9 0
25 -24 21 -22 -28 26 32 29 30 9 0
25 -24 21 -22 -28 26 32 29 -30 -9 0
25 -24 21 -22 -28 26 32 -29 30 -9 0
25 -24 21 -22 -28 26 32 -29 -30 -9 0
25 -24 21 -22 -28 26 -32 29 30 -9 0
25 -24 21 -22 -28 26 -32 29 -30 -9 0
25 -24 21 -22 -28 26 -32 -29 30 -9 0
25 -24 21 -22 -28 26 -32 -29 -30 -9 0
25 -24 21 -22 -28 -26 32 29 30 -9 0
25 -24 21 -22 -28 -26 32 29 -30 -9 0
25 -24 21 -22 -28 -26 32 -29 30 -9 0
25 -24 21 -22 -28 -26 32 -29 -30 -9 0
25 -24 21 -22 -28 -26 -32 29 30 -9 0
25 -24 21 -22 -28 -26 -32 29 -30 -9 0
25 -24 21 -22 -28 -26 -32 -29 30 -9 0
25 -24 21 -22 -28 -26 -32 -29 -30 -9 0
25 -24 -21 22 28 26 32 29 30 -9 0
25 -24 -21 22 28 26 32 29 -30 9 0
25 -24 -21 22 28 26 32 -29 30 9 0
25 -24 -21 22 28 26 32 -29 -30 -9 0
25 -24 -21 22 28 26 -32 29 30 9 0
25 -24 -21 22 28 26 -32 29 -30 -9 0
25 -24 -21 22 28 26 -32 -29 30 -9 0
25 -24 -21 22 28 26 -32 -29 -30 -9 0
25 -24 -21 22 28 -26 32 29 30 9 0
25 -24 -21 22 28 -26 32 29 -30 -9 0
25 -24 -21 22 28 -26 32 -29 30 -9 0
25 -24 -21 22 28 -26 32 -29 -30 -9 0
25 -24 -21 22 28 -26 -32 29 30 -9 0
25 -24 -21 22 28 -26 -32 29 -30 -9 0
25 -24 -21 22 28 -26 -32 -29 30 -9 0
25 -24 -21 22 28 -26 -32 -29 -30 -9 0
25 -24 -21 22 -28 26 32 29 30 9 0
25 -24 -21 22 -28 26 32 29 -30 -9 0
25 -24 -21 22 -28 26 32 -29 30 -9 0
25 -24 -21 22 -28 26 32 -29 -30 -9 0
25 -24 -21 22 -28 26 -32 29 30 -9 0
25 -24 -21 22 -28 26 -32 29 -30 -9 0
25 -24 -21 22 -28 26 -32 -29 30 -9 0
25 -24 -21 22 -28 26 -32 -29 -30 -9 0
25 -24 -21 22 -28 -26 32 29 30 -9 0
25 -24 -21 22 -28 -26 32 29 -30 -9 0
25 -24 -21 22 -28 -26 32 -29 30 -9 0
25 -24 -21 22 -28 -26 32 -29 -30 -9 0
25 -24 -21 22 -28 -26 -32 29 30 -9 0
25 -24 -21 22 -28 -26 -32 29 -30 -9 0
25 -24 -21 22 -28 -26 -32 -29 30 -9 0
25 -24 -21 22 -28 -26 -32 -29 -30 -9 0
25 -24 -21 -22 28 26 32 29 30 9 0
25 -24 -21 -22 28 26 32 29 -30 -9 0
25 -24 -21 -22 28 26 32 -29 30 -9 0
25 -24 -21 -22 28 26 32 -29 -30 -9 0
25 -24 -21 -22 28 26 -32 29 30 -9 0
25 -24 -21 -22 28 26 -32 29 -30 -9 0
25 -24 -21 -22 28 26 -32 -29 30 -9 0
25 -24 -21 -22 28 26 -32 -29 -30 -9 0
25 -24 -21 -22 28 -26 32 29 30 -9 0
25 -24 -21 -22 28 -26 32 29 -30 -9 0
25 -24 -21 -22 28 -26 32 -29 30 -9 0
25 -24 -21 -22 28 -26 32 -29 -30 -9 0
25 -24 -21 -22 28 -26 -32 29 30 -9 0
25 -24 -21 -22 28 -26 -32 29 -30 -9 0
25 -24 -21 -22 28 -26 -32 -29 30 -9 0
25 -24 -21 -22 28 -26 -32 -29 -30 -9 0
25 -24 -21 -22 -28 26 32 29 30 -9 0
25 -24 -21 -22 -28 26 32 29 -30 -9 0
25 -24 -21 -22 -28 26 32 -29 30 -9 0
25 -24 -21 -22 -28 26 32 -29 -30 -9 0
25 -24 -21 -22 -28 26 -32 29 30 -9 0
25 -24 -21 -22 -28 26 -32 29 -30 -9 0
25 -24 -21 -22 -28 26 -32 -29 30 -9 0
25 -24 -21 -22 -28 26 -32 -29 -30 -9 0
25 -24 -21 -22 -28 -26 32 29 30 -9 0
25 -24 -21 -22 -28 -26 32 29 -30 -9 0
25 -24 -21 -22 -28 -26 32 -29 30 -9 0
25 -24 -21 -22 -28 -26 32 -29 -30 -9 0
25 -24 -21 -22 -28 -26 -32 29 30 -9 0
25 -24 -21 -22 -28 -26 -32 29 -30 -9 0
25 -24 -21 -22 -28 -26 -32 -29 30 -9 0
25 -24 -21 -22 -28 -26 -32 -29 -30 -9 0
-25 24 21 22 28 26 32 29 30 -9 0
-25 24 21 22 28 26 32 29 -30 -9 0
-25 24 21 22 28 26 32 -29 30 -9 0
-25 24 21 22 28 26 32 -29 -30 9 0
-25 24 21 22 28 26 -32 29 30 -9 0
-25 24 21 22 28 26 -32 29 -30 9 0
-25 24 21 22 28 26 -32 -29 30 9 0
-25 24 21 22 28 26 -32 -29 -30 9 0
-25 24 21 22 28 -26 32 29 30 -9 0
-25 24 21 22 28 -26 32 29 -30 9 0
-25 24 21 22 28 -26 32 -29 30 9 0
-25 24 21 22 28 -26 32 -29 -30 9 0
-25 24 21 22 28 -26 -32 29 30 9 0
-25 24 21 22 28 -26 -32 29 -30 9 0
-25 24 21 22 28 -26 -32 -29 30 9 0
-25 24 21 22 28 -26 -32 -29 -30 -9 0
-25 24 21 22 -28 26 32 29 30 -9 0
-25 24 21 22 -28 26 32 29 -30 9 0
-25 24 21 22 -28 26 32 -29 30 9 0
-25 24 21 22 -28 26 32 -29 -30 9 0
-25 24 21 22 -28 26 -32 29 30 9 0
-25 24 21 22 -28 26 -32 29 -30 9 0
-25 24 21 22 -28 26 -32 -29 30 9 0
-25 24 21 22 -28 26 -32 -29 -30 -9 0
-25 24 21 22 -28 -26 32 29 30 9 0
-25 24 21 22 -28 -26 32 29 -30 9 0
-25 24 21 22 -28 -26 32 -29 30 9 0
-25 24 21 22 -28 -26 32 -29 -30 -9 0
-25 24 21 22 -28 -26 -32 29 30 9 0
-25 24 21 22 -28 -26 -32 29 -30 -9 0
-25 24 21 22 -28 -26 -32 -29 30 -9 0
-25 24 21 22 -28 -26 -32 -29 -30 -9 0
-25 24 21 -22 28 26 32 29 30 -9 0
-25 24 21 -22 28 26 32 29 -30 9 0
-25 24 21 -22 28 26 32 -29 30 9 0
-25 24 21 -22 28 26 32 -29 -30 9 0
-25 24 21 -22 28 26 -32 29 30 9 0
-25 24 21 -22 28 26 -32 29 -30 9 0
-25 24 21 -22 28 26 -32 -29 30 9 0
-25 24 21 -22 28 26 -32 -29 -30 -9 0
-25 24 21 -22 28 -26 32 29 30 9 0
-25 24 21 -22 28 -26 32 29 -30 9 0
-25 24 21 -22 28 -26 32 -29 30 9 0
-25 24 21 -22 28 -26 32 -29 -30 -9 0
-25 24 21 -22 28 -26 -32 29 30 9 0
-25 24 21 -22 28 -26 -32 29 -30 -9 0
-25 24 21 -22 28 -26 -32 -29 30 -9 0
-25 24 21 -22 28 -26 -32 -29 -30 -9 0
-25 24 21 -22 -28 26 32 29 30 9 0
-25 24 21 -22 -28 26 32 29 -30 9 0
-25 24 21 -22 -28 26 32 -29 30 9 0
-25 24 21 -22 -28 26 32 -29 -30 -9 0
-25 24 21 -22 -28 26 -32 29 30 9 0
-25 24 21 -22 -28 26 -32 29 -30 -9 0
-25 24 21 -22 -28 26 -32 -29 30 -9 0
-25 24 21 -22 -28 26 -32 -29 -30 -9 0
-25 24 21 -22 -28 -26 32 29 30 9 0
-25 24 21 -22 -28 -26 32 29 -30 -9 0
-25 24 21 -22 -28 -26 32 -29 30 -9 0
-25 24 21 -22 -28 -26 32 -29 -30 -9 0
-25 24 21 -22 -28 -26 -32 29 30 -9 0
-25 24 21 -22 -28 -26 -32 29 -30 -9 0
-25 24 21 -22 -28 -26 -32 -29 30 -9 0
-25 24 21 -22 -28 -26 -32 -29 -30 -9 0
-25 24 -21 22 28 26 32 29 30 -9 0
-25 24 -21 22 28 26 32 29 -30 9 0
-25 24 -21 22 28 26 32 -29 30 9 0
-25 24 -21 22 28 26 32 -29 -30 9 0
-25 24 -21 22 28 26 -32 29 30 9 0
-25 24 -21 22 28 26 -32 29 -30 9 0
-25 24 -21 22 28 26 -32 -29 30 9 0
-25 24 -21 22 28 26 -32 -29 -30 -9 0
-25 24 -21 22 28 -26 32 29 30 9 0
-25 24 -21 22 28 -26 32 29 -30 9 0
-25 24 -21 22 28 -26 32 -29 30 9 0
-25 24 -21 22 28 -26 32 -29 -30 -9 0
-25 24 -21 22 28 -26 -32 29 30 9 0
-25 24 -21 22 28 -26 -32 29 -30 -9 0
-25 24 -21 22 28 -26 -32 -29 30 -9 0
-25 24 -21 22 28 -26 -32 -29 -30 -9 0
-25 24 -21 22 -28 26 32 29 30 9 0
-25 24 -21 22 -28 26 32 29 -30 9 0
-25 24 -21 22 -28 26 32 -29 30 9 0
-25 24 -21 22 -28 26 32 -29 -30 -9 0
-25 24 -21 22 -28 26 -32 29 30 9 0
-25 24 -21 22 -28 26 -32 29 -30 -9 0
-25 24 -21 22 -28 26 -32 -29 30 -9 0
-25 24 -21 22 -28 26 -32 -29 -30 -9 0
-25 24 -21 22 -28 -26 32 29 30 9 0
-25 24 -21 22 -28 -26 32 29 -30 -9 0
-25 24 -21 22 -28 -26 32 -29 30 -9 0
-25 24 -21 22 -28 -26 32 -29 -30 -9 0
-25 24 -21 22 -28 -26 -32 29 30 -9 0
-25 24 -21 22 -28 -26 -32 29 -30 -9 0
-25 24 -21 22 -28 -26 -32 -29 30 -9 0
-25 24 -21 22 -28 -26 -32 -29 -30 -9 0
-25 24 -21 -22 28 26 32 29 30 9 0
-25 24 -21 -22 28 26 32 29 -30 9 0
-25 24 -21 -22 28 26 32 -29 30 9 0
-25 24 -21 -22 28 26 32 -29 -30 -9 0
-25 24 -21 -22 28 26 -32 29 30 9 0
-25 24 -21 -22 28 26 -32 29 -30 -9 0
-25 24 -21 -22 28 26 -32 -29 30 -9 0
-25 24 -21 -22 28 26 -32 -29 -30 -9 0
-25 24 -21 -22 28 -26 32 29 30 9 0
-25 24 -21 -22 28 -26 32 29 -30 -9 0
-25 24 -21 -22 28 -26 32 -29 30 -9 0
-25 24 -21 -22 28 -26 32 -29 -30 -9 0
-25 24 -21 -22 28 -26 -32 29 30 -9 0
-25 24 -21 -22 28 -26 -32 29 -30 -9 0
-25 24 -21 -22 28 -26 -32 -29 30 -9 0
-25 24 -21 -22 28 -26 -32 -29 -30 -9 0
-25 24 -21 -22 -28 26 32 29 30 9 0
-25 24 -21 -22 -28 26 32 29 -30 -9 0
-25 24 -21 -22 -28 26 32 -29 30 -9 0
-25 24 -21 -22 -28 26 32 -29 -30 -9 0
-25 24 -21 -22 -28 26 -32 29 30 -9 0
-25 24 -21 -22 -28 26 -32 29 -30 -9 0
-25 24 -21 -22 -28 26 -32 -29 30 -9 0
-25 24 -21 -22 -28 26 -32 -29 -30 -9 0
-25 24 -21 -22 -28 -26 32 29 30 -9 0
-25 24 -21 -22 -28 -26 32 29 -30 -9 0
-25 24 -21 -22 -28 -26 32 -29 30 -9 0
-25 24 -21 -22 -28 -26 32 -29 -30 -9 0
-25 24 -21 -22 -28 -26 -32 29 30 -9 0
-25 24 -21 -22 -28 -26 -32 29 -30 -9 0
-25 24 -21 -22 -28 -26 -32 -29 30 -9 0
-25 24 -21 -22 -28 -26 -32 -29 -30 -9 0
-25 -24 21 22 28 26 32 29 30 -9 0
-25 -24 21 22 28 26 32 29 -30 9 0
-25 -24 21 22 28 26 32 -29 30 9 0
-25 -24 21 22 28 26 32 -29 -30 9 0
-25 -24 21 22 28 26 -32 29 30 9 0
-25 -24 21 22 28 26 -32 29 -30 9 0
-25 -24 21 22 28 26 -32 -29 30 9 0
-25 -24 21 22 28 26 -32 -29 -30 -9 0
-25 -24 21 22 28 -26 32 29 30 9 0
-25 -24 21 22 28 -26 32 29 -30 9 0
-25 -24 21 22 28 -26 32 -29 30 9 0
-25 -24 21 22 28 -26 32 -29 -30 -9 0
-25 -24 21 22 28 -26 -32 29 30 9 0
-25 -24 21 22 28 -26 -32 29 -30 -9 0
-25 -24 21 22 28 -26 -32 -29 30 -9 0
-25 -24 21 22 28 -26 -32 -29 -30 -9 0
-25 -24 21 22 -28 26 32 29 30 9 0
-25 -24 21 22 -28 26 32 29 -30 9 0
-25 -24 21 22 -28 26 32 -29 30 9 0
-25 -24 21 22 -28 26 32 -29 -30 -9 0
-25 -24 21 22 -28 26 -32 29 30 9 0
-25 -24 21 22 -28 26 -32 29 -30 -9 0
-25 -24 21 22 -28 26 -32 -29 30 -9 0
-25 -24 21 22 -28 26 -32 -29 -30 -9 0
-25 -24 21 22 -28 -26 32 29 30 9 0
-25 -24 21 22 -28 -26 32 29 -30 -9 0
-25 -24 21 22 -28 -26 32 -29 30 -9 0
-25 -24 21 22 -28 -26 32 -29 -30 -9 0
-25 -24 21 22 -28 -26 -32 29 30 -9 0
-25 -24 21 22 -28 -26 -32 29 -30 -9 0
-25 -24 21 22 -28 -26 -32 -29 30 -9 0
-25 -24 21 22 -28 -26 -32 -29 -30 -9 0
-25 -24 21 -22 28 26 32 29 30 9 0
-25 -24 21 -22 28 26 32 29 -30 9 0
-25 -24 21 -22 28 26 32 -29 30 9 0
-25 -24 21 -22 28 26 32 -29 -30 -9 0
-25 -24 21 -22 28 26 -32 29 30 9 0
-25 -24 21 -22 28 26 -32 29 -30 -9 0
-25 -24 21 -22 28 26 -32 -29 30 -9 0
-25 -24 21 -22 28 26 -32 -29 -30 -9 0
-25 -24 21 -22 28 -26 32 29 30 9 0
-25 -24 21 -22 28 -26 32 29 -30 -9 0
-25 -24 21 -22 28 -26 32 -29 30 -9 0
-25 -24 21 -22 28 -26 32 -29 -30 -9 0
-25 -24 21 -22 28 -26 -32 29 30 -9 0
-25 -24 21 -22 28 -26 -32 29 -30 -9 0
-25 -24 21 -22 28 -26 -32 -29 30 -9 0
-25 -24 21 -22 28 -26 -32 -29 -30 -9 0
-25 -24 21 -22 -28 26 32 29 30 9 0
-25 -24 21 -22 -28 26 32 29 -30 -9 0
-25 -24 21 -22 -28 26 32 -29 30 -9 0
-25 -24 21 -22 -28 26 32 -29 -30 -9 0
-25 -24 21 -22 -28 26 -32 29 30 -9 0
-25 -24 21 -22 -28 26 -32 29 -30 -9 0
-25 -24 21 -22 -28 26 -32 -29 30 -9 0
-25 -24 21 -22 -28 26 -32 -29 -30 -9 0
-25 -24 21 -22 -28 -26 32 29 30 -9 0
-25 -24 21 -22 -28 -26 32 29 -30 -9 0
-25 -24 21 -22 -28 -26 32 -29 30 -9 0
-25 -24 21 -22 -28 -26 32 -29 -30 -9 0
-25 -24 21 -22 -28 -26 -32 29 30 -9 0
-25 -24 21 -22 -28 -26 -32 29 -30 -9 0
-25 -24 21 -22 -28 -26 -32 -29 30 -9 0
-25 -24 21 -22 -28 -26 -32 -29 -30 -9 0
-25 -24 -21 22 28 26 32 29 30 9 0
-25 -24 -21 22 28 26 32 29 -30 9 0
-25 -24 -21 22 28 26 32 -29 30 9 0
-25 -24 -21 22 28 26 32 -29 -30 -9 0
-25 -24 -21 22 28 26 -32 29 30 9 0
-25 -24 -21 22 28 26 -32 29 -30 -9 0
-25 -24 -21 22 28 26 -32 -29 30 -9 0
-25 -24 -21 22 28 26 -32 -29 -30 -9 0
-25 -24 -21 22 28 -26 32 29 30 9 0
-25 -24 -21 22 28 -26 32 29 -30 -9 0
-25 -24 -21 22 28 -26 32 -29 30 -9 0
-25 -24 -21 22 28 -26 32 -29 -30 -9 0
-25 -24 -21 22 28 -26 -32 29 30 -9 0
-25 -24 -21 22 28 -26 -32 29 -30 -9 0
-25 -24 -21 22 28 -26 -32 -29 30 -9 0
-25 -24 -21 22 28 -26 -32 -29 -30 -9 0
-25 -24 -21 22 -28 26 32 29 30 9 0
-25 -24 -21 22 -28 26 32 29 -30 -9 0
-25 -24 -21 22 -28 26 32 -29 30 -9 0
-25 -24 -21 22 -28 26 32 -29 -30 -9 0
-25 -24 -21 22 -28 26 -32 29 30 -9 0
-25 -24 -21 22 -28 26 -32 29 -30 -9 0
-25 -24 -21 22 -28 26 -32 -29 30 -9 0
-25 -24 -21 22 -28 26 -32 -29 -30 -9 0
-25 -24 -21 22 -28 -26 32 29 30 -9 0
-25 -24 -21 22 -28 -26 32 29 -30 -9 0
-25 -24 -21 22 -28 -26 32 -29 30 -9 0
-25 -24 -21 22 -28 -26 32 -29 -30 -9 0
-25 -24 -21 22 -28 -26 -32 29 30 -9 0
-25 -24 -21 22 -28 -26 -32 29 -30 -9 0
-25 -24 -21 22 -28 -26 -32 -29 30 -9 0
-25 -24 -21 22 -28 -26 -32 -29 -30 -9 0
-25 -24 -21 -22 28 26 32 29 30 9 0
-25 -24 -21 -22 28 26 32 29 -30 -9 0
-25 -24 -21 -22 28 26 32 -29 30 -9 0
-25 -24 -21 -22 28 26 32 -29 -30 -9 0
-25 -24 -21 -22 28 26 -32 29 30 -9 0
-25 -24 -21 -22 28 26 -32 29 -30 -9 0
-25 -24 -21 -22 28 26 -32 -29 30 -9 0
-25 -24 -21 -22 28 26 -32 -29 -30 -9 0
-25 -24 -21 -22 28 -26 32 29 30 -9 0
-25 -24 -21 -22 28 -26 32 29 -30 -9 0
-25 -24 -21 -22 28 -26 32 -29 30 -9 0
-25 -24 -21 -22 28 -26 32 -29 -30 -9 0
-25 -24 -21 -22 28 -26 -32 29 30 -9 0
-25 -24 -21 -22 28 -26 -32 29 -30 -9 0
-25 -24 -21 -22 28 -26 -32 -29 30 -9 0
-25 -24 -21 -22 28 -26 -32 -29 -30 -9 0
-25 -24 -21 -22 -28 26 32 29 30 -9 0
-25 -24 -21 -22 -28 26 32 29 -30 -9 0
-25 -24 -21 -22 -28 26 32 -29 30 -9 0
-25 -24 -21 -22 -28 26 32 -29 -30 -9 0
-25 -24 -21 -22 -28 26 -32 29 30 -9 0
-25 -24 -21 -22 -28 26 -32 29 -30 -9 0
-25 -24 -21 -22 -28 26 -32 -29 30 -9 0
-25 -24 -21 -22 -28 26 -32 -29 -30 -9 0
-25 -24 -21 -22 -28 -26 32 29 30 -9 0
-25 -24 -21 -22 -28 -26 32 29 -30 -9 0
-25 -24 -21 -22 -28 -26 32 -29 30 -9 0
-25 -24 -21 -22 -28 -26 32 -29 -30 -9 0
-25 -24 -21 -22 -28 -26 -32 29 30 -9 0
-25 -24 -21 -22 -28 -26 -32 29 -30 -9 0
-25 -24 -21 -22 -28 -26 -32 -29 30 -9 0
-25 -24 -21 -22 -28 -26 -32 -29 -30 -9 0
26 21 22 23 25 27 29 30 31 -10 0
26 21 22 23 25 27 29 30 -31 -10 0
26 21 22 23 25 27 29 -30 31 -10 0
26 21 22 23 25 27 29 -30 -31 -10 0
26 21 22 23 25 27 -29 30 31 -10 0
26 21 22 23 25 27 -29 30 -31 -10 0
26 21 22 23 25 27 -29 -30 31 -10 0
26 21 22 23 25 27 -29 -30 -31 10 0
26 21 22 23 25 -27 29 30 31 -10 0
26 21 22 23 25 -27 29 30 -31 -10 0
26 21 22 23 25 -27 29 -30 31 -10 0
26 21 22 23 25 -27 29 -30 -31 10 0
26 21 22 23 25 -27 -29 30 31 -10 0
26 21 22 23 25 -27 -29 30 -31 10 0
26 21 22 23 25 -27 -29 -30 31 10 0
26 21 22 23 25 -27 -29 -30 -31 -10 0
26 21 22 23 -25 27 29 30 31 -10 0
26 21 22 23 -25 27 29 30 -31 -10 0
26 21 22 23 -25 27 29 -30 31 -10 0
26 21 22 23 -25 27 29 -30 -31 10 0
26 21 22 23 -25 27 -29 30 31 -10 0
26 21 22 23 -25 27 -29 30 -31 10 0
26 21 22 23 -25 27 -29 -30 31 10 0
26 21 22 23 -25 27 -29 -30 -31 -10 0
26 21 22 23 -25 -27 29 30 31 -10 0
26 21 22 23 -25 -27 29 30 -31 10 0
26 21 22 23 -25 -27 29 -30 31 10 0
26 21 22 23 -25 -27 29 -30 -31 -10 0
26 21 22 23 -25 -27 -29 30 31 10 0
26 21 22 23 -25 -27 -29 30 -31 -10 0
26 21 22 23 -25 -27 -29 -30 31 -10 0
26 21 22 23 -25 -27 -29 -30 -31 -10 0
26 21 22 -23 25 27 29 30 31 -10 0
26 21 22 -23 25 27 29 30 -31 -10 0
26 21 22 -23 25 27 29 -30 31 -10 0
26 21 22 -23 25 27 29 -30 -31 10 0
26 21 22 -23 25 27 -29 30 31 -10 0
26 21 22 -23 25 27 -29 30 -31 10 0
26 21 22 -23 25 27 -29 -30 31 10 0
26 21 22 -23 25 27 -29 -30 -31 -10 0
26 21 22 -23 25 -27 29 30 31 -10 0
26 21 22 -23 25 -27 29 30 -31 10 0
26 21 22 -23 25 -27 29 -30 31 10 0
26 21 22 -23 25 -27 29 -30 -31 -10 0
26 21 22 -23 25 -27 -29 30 31 10 0
26 21 22 -23 25 -27 -29 30 -31 -10 0
26 21 22 -23 25 -27 -29 -30 31 -10 0
26 21 22 -23 25 -27 -29 -30 -31 -10 0
26 21 22 -23 -25 27 29 30 31 -10 0
26 21 22 -23 -25 27 29 30 -31 10 0
26 21 22 -23 -25 27 29 -30 31 10 0
26 21 22 -23 -25 27 29 -30 -31 -10 0
26 21 22 -23 -25 27 -29 30 31 10 0
26 21 22 -23 -25 27 -29 30 -31 -10 0
26 21 22 -23 -25 27 -29 -30 31 -10 0
26 21 22 -23 -25 27 -29 -30 -31 -10 0
26 21 22 -23 -25 -27 29 30 31 10 0
26 21 22 -23 -25 -27 29 30 -31 -10 0
26 21 22 -23 -25 -27 29 -30 31 -10 0
26 21 22 -23 -25 -27 29 -30 -31 -10 0
26 21 22 -23 -25 -27 -29 30 31 -10 0
26 21 22 -23 -25 -27 -29 30 -31 -10 0
26 21 22 -23 -25 -27 -29 -30 31 -10 0
26 21 22 -23 -25 -27 -29 -30 -31 -10 0
26 21 -22 23 25 27 29 30 31 -10 0
26 21 -22 23 25 27 29 30 -31 -10 0
26 21 -22 23 25 27 29 -30 31 -10 0
26 21 -22 23 25 27 29 -30 -31 10 0
26 21 -22 23 25 27 -29 30 31 -10 0
26 21 -22 23 25 27 -29 30 -31 10 0
26 21 -22 23 25 27 -29 -30 31 10 0
26 21 -22 23 25 27 -29 -30 -31 -10 0
26 21 -22 23 25 -27 29 30 31 -10 0
26 21 -22 23 25 -27 29 30 -31 10 0
26 21 -22 23 25 -27 29 -30 31 10 0
26 21 -22 23 25 -27 29 -30 -31 -10 0
26 21 -22 23 25 -27 -29 30 31 10 0
26 21 -22 23 25 -27 -29 30 -31 -10 0
26 21 -22 23 25 -27 -29 -30 31 -10 0
26 21 -22 23 25 -27 -29 -30 -31 -10 0
26 21 -22 23 -25 27 29 30 31 -10 0
26 21 -22 23 -25 27 29 30 -31 10 0
26 21 -22 23 -25 27 29 -30 31 10 0
26 21 -22 23 -25 27 29 -30 -31 -10 0
26 21 -22 23 -25 27 -29 30 31 10 0
26 21 -22 23 -25 27 -29 30 -31 -10 0
26 21 -22 23 -25 27 -29 -30 31 -10 0
26 21 -22 23 -25 27 -29 -30 -31 -10 0
26 21 -22 23 -25 -27 29 30 31 10 0
26 21 -22 23 -25 -27 29 30 -31 -10 0
26 21 -22 23 -25 -27 29 -30 31 -10 0
26 21 -22 23 -25 -27 29 -30 -31 -10 0
26 21 -22 23 -25 -27 -29 30 31 -10 0
26 21 -22 23 -25 -27 -29 30 -31 -10 0
26 21 -22 23 -25 -27 -29 -30 31 -10 0
26 21 -22 23 -25 -27 -29 -30 -31 -10 0
26 21 -22 -23 25 27 29 30 31 -10 0
26 21 -22 -23 25 27 29 30 -31 10 0
26 21 -22 -23 25 27 29 -30 31 10 0
26 21 -22 -23 25 27 29 -30 -31 -10 0
26 21 -22 -23 25 27 -29 30 31 10 0
26 21 -22 -23 25 27 -29 30 -31 -10 0
26 21 -22 -23 25 27 -29 -30 31 -10 0
26 21 -22 -23 25 27 -29 -30 -31 -10 0
26 21 -22 -23 25 -27 29 30 31 10 0
26 21 -22 -23 25 -27 29 30 -31 -10 0
26 21 -22 -23 25 -27 29 -30 31 -10 0
26 21 -22 -23 25 -27 29 -30 -31 -10 0
26 21 -22 -23 25 -27 -29 30 31 -10 0
26 21 -22 -23 25 -27 -29 30 -31 -10 0
26 21 -22 -23 25 -27 -29 -30 31 -10 0
26 21 -22 -23 25 -27 -29 -30 -31 -10 0
26 21 -22 -23 -25 27 29 30 31 10 0
26 21 -22 -23 -25 27 29 30 -31 -10 0
26 21 -22 -23 -25 27 29 -30 31 -10 0
26 21 -22 -23 -25 27 29 -30 -31 -10 0
26 21 -22 -23 -25 27 -29 30 31 -10 0
26 21 -22 -23 -25 27 -29 30 -31 -10 0
26 21 -22 -23 -25 27 -29 -30 31 -10 0
26 21 -22 -23 -25 27 -29 -30 -31 -10 0
26 21 -22 -23 -25 -27 29 30 31 -10 0
26 21 -22 -23 -25 -27 29 30 -31 -10 0
26 21 -22 -23 -25 -27 29 -30 31 -10 0
26 21 -22 -23 -25 -27 29 -30 -31 -10 0
26 21 -22 -23 -25 -27 -29 30 31 -10 0
26 21 -22 -23 -25 -27 -29 30 -31 -10 0
26 21 -22 -23 -25 -27 -29 -30 31 -10 0
26 21 -22 -23 -25 -27 -29 -30 -31 -10 0
26 -21 22 23 25 27 29 30 31 -10 0
26 -21 22 23 25 27 29 30 -31 -10 0
26 -21 22 23 25 27 29 -30 31 -10 0
26 -21 22 23 25 27 29 -30 -31 10 0
26 -21 22 23 25 27 -29 30 31 -10 0
26 -21 22 23 25 27 -29 30 -31 10 0
26 -21 22 23 25 27 -29 -30 31 10 0
26 -21 22 23 25 27 -29 -30 -31 -10 0
26 -21 22 23 25 -27 29 30 31 -10 0
26 -21 22 23 25 -27 29 30 -31 10 0
26 -21 22 23 25 -27 29 -30 31 10 0
26 -21 22 23 25 -27 29 -30 -31 -10 0
26 -21 22 23 25 -27 -29 30 31 10 0
26 -21 22 23 25 -27 -29 30 -31 -10 0
26 -21 22 23 25 -27 -29 -30 31 -10 0
26 -21 22 23 25 -27 -29 -30 -31 -10 0
26 -21 22 23 -25 27 29 30 31 -10 0
26 -21 22 23 -25 27 29 30 -31 10 0
26 -21 22 23 -25 27 29 -30 31 10 0
26 -21 22 23 -25 27 29 -30 -31 -10 0
26 -21 22 23 -25 27 -29 30 31 10 0
26 -21 22 23 -25 27 -29 30 -31 -10 0
26 -21 22 23 -25 27 -29 -30 31 -10 0
26 -21 22 23 -25 27 -29 -30 -31 -10 0
26 -21 22 23 -25 -27 29 30 31 10 0
26 -21 22 23 -25 -27 29 30 -31 -10 0
26 -21 22 23 -25 -27 29 -30 31 -10 0
26 -21 22 23 -25 -27 29 -30 -31 -10 0
26 -21 22 23 -25 -27 -29 30 31 -10 0
26 -21 22 23 -25 -27 -29 30 -31 -10 0
26 -21 22 23 -25 -27 -29 -30 31 -10 0
26 -21 22 23 -25 -27 -29 -30 -31 -10 0
26 -21 22 -23 25 27 29 30 31 -10 0
26 -21 22 -23 25 27 29 30 -31 10 0
26 -21 22 -23 25 27 29 -30 31 10 0
26 -21 22 -23 25 27 29 -30 -31 -10 0
26 -21 22 -23 25 27 -29 30 31 10 0
26 -21 22 -23 25 27 -29 30 -31 -10 0
26 -21 22 -23 25 27 -29 -30 31 -10 0
26 -21 22 -23 25 27 -29 -30 -31 -10 0
26 -21 22 -23 25 -27 29 30 31 10 0
26 -21 22 -23 25 -27 29 30 -31 -10 0
26 -21 22 -23 25 -27 29 -30 31 -10 0
26 -21 22 -23 25 -27 29 -30 -31 -10 0
26 -21 22 -23 25 -27 -29 30 31 -10 0
26 -21 22 -23 25 -27 -29 30 -31 -10 0
26 -21 22 -23 25 -27 -29 -30 31 -10 0
26 -21 22 -23 25 -27 -29 -30 -31 -10 0
26 -21 22 -23 -25 27 29 30 31 10 0
26 -21 22 -23 -25 27 29 30 -31 -10 0
26 -21 22 -23 -25 27 29 -30 31 -10 0
26 -21 22 -23 -25 27 29 -30 -31 -10 0
26 -21 22 -23 -25 27 -29 30 31 -10 0
26 -21 22 -23 -25 27 -29 30 -31 -10 0
26 -21 22 -23 -25 27 -29 -30 31 -10 0
26 -21 22 -23 -25 27 -29 -30 -31 -10 0
26 -21 22 -23 -25 -27 29 30 31 -10 0
26 -21 22 -23 -25 -27 29 30 -31 -10 0
26 -21 22 -23 -25 -27 29 -30 31 -10 0
26 -21 22 -23 -25 -27 29 -30 -31 -10 0
26 -21 22 -23 -25 -27 -29 30 31 -10 0
26 -21 22 -23 -25 -27 -29 30 -31 -10 0
26 -21 22 -23 -25 -27 -29 -30 31 -10 0
26 -21 22 -23 -25 -27 -29 -30 -31 -10 0
26 -21 -22 23 25 27 29 30 31 -10 0
26 -21 -22 23 25 27 29 30 -31 10 0
26 -21 -22 23 25 27 29 -30 31 10 0
26 -21 -22 23 25 27 29 -30 -31 -10 0
26 -21 -22 23 25 27 -29 30 31 10 0
26 -21 -22 23 25 27 -29 30 -31 -10 0
26 -21 -22 23 25 27 -29 -30 31 -10 0
26 -21 -22 23 25 27 -29 -30 -31 -10 0
26 -21 -22 23 25 -27 29 30 31 10 0
26 -21 -22 23 25 -27 29 30 -31 -10 0
26 -21 -22 23 25 -27 29 -30 31 -10 0
26 -21 -22 23 25 -27 29 -30 -31 -10 0
26 -21 -22 23 25 -27 -29 30 31 -10 0
26 -21 -22 23 25 -27 -29 30 -31 -10 0
26 -21 -22 23 25 -27 -29 -30 31 -10 0
26 -21 -22 23 25 -27 -29 -30 -31 -10 0
26 -21 -22 23 -25 27 29 30 31 10 0
26 -21 -22 23 -25 27 29 30 -31 -10 0
26 -21 -22 23 -25 27 29 -30 31 -10 0
26 -21 -22 23 -25 27 29 -30 -31 -10 0
26 -21 -22 23 -25 27 -29 30 31 -10 0
26 -21 -22 23 -25 27 -29 30 -31 -10 0
26 -21 -22 23 -25 27 -29 -30 31 -10 0
26 -21 -22 23 -25 27 -29 -30 -31 -10 0
26 -21 -22 23 -25 -27 29 30 31 -10 0
26 -21 -22 23 -25 -27 29 30 -31 -10 0
26 -21 -22 23 -25 -27 29 -30 31 -10 0
26 -21 -22 23 -25 -27 29 -30 -31 -10 0
26 -21 -22 23 -25 -27 -29 30 31 -10 0
26 -21 -22 23 -25 -27 -29 30 -31 -10 0
26 -21 -22 23 -25 -27 -29 -30 31 -10 0
26 -21 -22 23 -25 -27 -29 -30 -31 -10 0
26 -21 -22 -23 25 27 29 30 31 10 0
26 -21 -22 -23 25 27 29 30 -31 -10 0
26 -21 -22 -23 25 27 29 -30 31 -10 0
26 -21 -22 -23 25 27 29 -30 -31 -10 0
26 -21 -22 -23 25 27 -29 30 31 -10 0
26 -21 -22 -23 25 27 -29 30 -31 -10 0
26 -21 -22 -23 25 27 -29 -30 31 -10 0
26 -21 -22 -23 25 27 -29 -30 -31 -10 0
26 -21 -22 -23 25 -27 29 30 31 -10 0
26 -21 -22 -23 25 -27 29 30 -31 -10 0
26 -21 -22 -23 25 -27 29 -30 31 -10 0
26 -21 -22 -23 25 -27 29 -30 -31 -10 0
26 -21 -22 -23 25 -27 -29 30 31 -10 0
26 -21 -22 -23 25 -27 -29 30 -31 -10 0
26 -21 -22 -23 25 -27 -29 -30 31 -10 0
26 -21 -22 -23 25 -27 -29 -30 -31 -10 0
26 -21 -22 -23 -25 27 29 30 31 -10 0
26 -21 -22 -23 -25 27 29 30 -31 -10 0
26 -21 -22 -23 -25 27 29 -30 31 -10 0
26 -21 -22 -23 -25 27 29 -30 -31 -10 0
26 -21 -22 -23 -25 27 -29 30 31 -10 0
26 -21 -22 -23 -25 27 -29 30 -31 -10 0
26 -21 -22 -23 -25 27 -29 -30 31 -10 0
26 -21 -22 -23 -25 27 -29 -30 -31 -10 0
26 -21 -22 -23 -25 -27 29 30 31 -10 0
26 -21 -22 -23 -25 -27 29 30 -31 -10 0
26 -21 -22 -23 -25 -27 29 -30 31 -10 0
26 -21 -22 -23 -25 -27 29 -30 -31 -10 0
26 -21 -22 -23 -25 -27 -29 30 31 -10 0
26 -21 -22 -23 -25 -27 -29 30 -31 -10 0
26 -21 -22 -23 -25 -27 -29 -30 31 -10 0
26 -21 -22 -23 -25 -27 -29 -30 -31 -10 0
-26 21 22 23 25 27 29 30 31 -10 0
-26 21 22 23 25 27 29 30 -31 -10 0
-26 21 22 23 25 27 29 -30 31 -10 0
-26 21 22 23 25 27 29 -30 -31 10 0
-26 21 22 23 25 27 -29 30 31 -10 0
-26 21 22 23 25 27 -29 30 -31 10 0
-26 21 22 23 25 27 -29 -30 31 10 0
-26 21 22 23 25 27 -29 -30 -31 10 0
-26 21 22 23 25 -27 29 30 31 -10 0
-26 21 22 23 25 -27 29 30 -31 10 0
-26 21 22 23 25 -27 29 -30 31 10 0
-26 21 22 23 25 -27 29 -30 -31 10 0
-26 21 22 23 25 -27 -29 30 31 10 0
-26 21 22 23 25 -27 -29 30 -31 10 0
-26 21 22 23 25 -27 -29 -30 31 10 0
-26 21 22 23 25 -27 -29 -30 -31 -10 0
-26 21 22 23 -25 27 29 30 31 -10 0
-26 21 22 23 -25 27 29 30 -31 10 0
-26 21 22 23 -25 27 29 -30 31 10 0
-26 21 22 23 -25 27 29 -30 -31 10 0
-26 21 22 23 -25 27 -29 30 31 10 0
-26 21 22 23 -25 27 -29 30 -31 10 0
-26 21 22 23 -25 27 -29 -30 31 10 0
-26 21 22 23 -25 27 -29 -30 -31 -10 0
-26 21 22 23 -25 -27 29 30 31 10 0
-26 21 22 23 -25 -27 29 30 -31 10 0
-26 21 22 23 -25 -27 29 -30 31 10 0
-26 21 22 23 -25 -27 29 -30 -31 -10 0
-26 21 22 23 -25 -27 -29 30 31 10 0
-26 21 22 23 -25 -27 -29 30 -31 -10 0
-26 21 22 23 -25 -27 -29 -30 31 -10 0
-26 21 22 23 -25 -27 -29 -30 -31 -10 0
-26 21 22 -23 25 27 29 30 31 -10 0
-26 21 22 -23 25 27 29 30 -31 10 0
-26 21 22 -23 25 27 29 -30 31 10 0
-26 21 22 -23 25 27 29 -30 -31 10 0
-26 21 22 -23 25 27 -29 30 31 10 0
-26 21 22 -23 25 27 -29 30 -31 10 0
-26 21 22 -23 25 27 -29 -30 31 10 0
-26 21 22 -23 25 27 -29 -30 -31 -10 0
-26 21 22 -23 25 -27 29 30 31 10 0
-26 21 22 -23 25 -27 29 30 -31 10 0
-26 21 22 -23 25 -27 29 -30 31 10 0
-26 21 22 -23 25 -27 29 -30 -31 -10 0
-26 21 22 -23 25 -27 -29 30 31 10 0
-26 21 22 -23 25 -27 -29 30 -31 -10 0
-26 21 22 -23 25 -27 -29 -30 31 -10 0
-26 21 22 -23 25 -27 -29 -30 -31 -10 0
-26 21 22 -23 -25 27 29 30 31 10 0
-26 21 22 -23 -25 27 29 30 -31 10 0
-26 21 22 -23 -25 27 29 -30 31 10 0
-26 21 22 -23 -25 27 29 -30 -31 -10 0
-26 21 22 -23 -25 27 -29 30 31 10 0
-26 21 22 -23 -25 27 -29 30 -31 -10 0
-26 21 22 -23 -25 27 -29 -30 31 -10 0
-26 21 22 -23 -25 27 -29 -30 -31 -10 0
-26 21 22 -23 -25 -27 29 30 31 10 0
-26 21 22 -23 -25 -27 29 30 -31 -10 0
-26 21 22 -23 -25 -27 29 -30 31 -10 0
-26 21 22 -23 -25 -27 29 -30 -31 -10 0
-26 21 22 -23 -25 -27 -29 30 31 -10 0
-26 21 22 -23 -25 -27 -29 30 -31 -10 0
-26 21 22 -23 -25 -27 -29 -30 31 -10 0
-26 21 22 -23 -25 -27 -29 -30 -31 -10 0
-26 21 -22 23 25 27 29 30 31 -10 0
-26 21 -22 23 25 27 29 30 -31 10 0
-26 21 -22 23 25 27 29 -30 31 10 0
-26 21 -22 23 25 27 29 -30 -31 10 0
-26 21 -22 23 25 27 -29 30 31 10 0
-26 21 -22 23 25 27 -29 30 -31 10 0
-26 21 -22 23 25 27 -29 -30 31 10 0
-26 21 -22 23 25 27 -29 -30 -31 -10 0
-26 21 -22 23 25 -27 29 30 31 10 0
-26 21 -22 23 25 -27 29 30 -31 10 0
-26 21 -22 23 25 -27 29 -30 31 10 0
-26 21 -22 23 25 -27 29 -30 -31 -10 0
-26 21 -22 23 25 -27 -29 30 31 10 0
-26 21 -22 23 25 -27 -29 30 -31 -10 0
-26 21 -22 23 25 -27 -29 -30 31 -10 0
-26 21 -22 23 25 -27 -29 -30 -31 -10 0
-26 21 -22 23 -25 27 29 30 31 10 0
-26 21 -22 23 -25 27 29 30 -31 10 0
-26 21 -22 23 -25 27 29 -30 31 10 0
-26 21 -22 23 -25 27 29 -30 -31 -10 0
-26 21 -22 23 -25 27 -29 30 31 10 0
-26 21 -22 23 -25 27 -29 30 -31 -10 0
-26 21 -22 23 -25 27 -29 -30 31 -10 0
-26 21 -22 23 -25 27 -29 -30 -31 -10 0
-26 21 -22 23 -25 -27 29 30 31 10 0
-26 21 -22 23 -25 -27 29 30 -31 -10 0
-26 21 -22 23 -25 -27 29 -30 31 -10 0
-26 21 -22 23 -25 -27 29 -30 -31 -10 0
-26 21 -22 23 -25 -27 -29 30 31 -10 0
-26 21 -22 23 -25 -27 -29 30 -31 -10 0
-26 21 -22 23 -25 -27 -29 -30 31 -10 0
-26 21 -22 23 -25 -27 -29 -30 -31 -10 0
-26 21 -22 -23 25 27 29 30 31 10 0
-26 21 -22 -23 25 27 29 30 -31 10 0
-26 21 -22 -23 25 27 29 -30 31 10 0
-26 21 -22 -23 25 27 29 -30 -31 -10 0
-26 21 -22 -23 25 27 -29 30 31 10 0
-26 21 -22 -23 25 27 -29 30 -31 -10 0
-26 21 -22 -23 25 27 -29 -30 31 -10 0
-26 21 -22 -23 25 27 -29 -30 -31 -10 0
-26 21 -22 -23 25 -27 29 30 31 10 0
-26 21 -22 -23 25 -27 29 30 -31 -10 0
-26 21 -22 -23 25 -27 29 -30 31 -10 0
-26 21 -22 -23 25 -27 29 -30 -31 -10 0
-26 21 -22 -23 25 -27 -29 30 31 -10 0
-26 21 -22 -23 25 -27 -29 30 -31 -10 0
-26 21 -22 -23 25 -27 -29 -30 31 -10 0
-26 21 -22 -23 25 -27 -29 -30 -31 -10 0
-26 21 -22 -23 -25 27 29 30 31 10 0
-26 21 -22 -23 -25 27 29 30 -31 -10 0
-26 21 -22 -23 -25 27 29 -30 31 -10 0
-26 21 -22 -23 -25 27 29 -30 -31 -10 0
-26 21 -22 -23 -25 27 -29 30 31 -10 0
-26 21 -22 -23 -25 27 -29 30 -31 -10 0
-26 21 -22 -23 -25 27 -29 -30 31 -10 0
-26 21 -22 -23 -25 27 -29 -30 -31 -10 0
-26 21 -22 -23 -25 -27 29 30 31 -10 0
-26 21 -22 -23 -25 -27 29 30 -31 -10 0
-26 21 -22 -23 -25 -27 29 -30 31 -10 0
-26 21 -22 -23 -25 -27 29 -30 -31 -10 0
-26 21 -22 -23 -25 -27 -29 30 31 -10 0
-26 21 -22 -23 -25 -27 -29 30 -31 -10 0
-26 21 -22 -23 -25 -27 -29 -30 31 -10 0
-26 21 -22 -23 -25 -27 -29 -30 -31 -10 0
-26 -21 22 23 25 27 29 30 31 -10 0
-26 -21 22 23 25 27 29 30 -31 10 0
-26 -21 22 23 25 27 29 -30 31 10 0
-26 -21 22 23 25 27 29 -30 -31 10 0
-26 -21 22 23 25 27 -29 30 31 10 0
-26 -21 22 23 25 27 -29 30 -31 10 0
-26 -21 22 23 25 27 -29 -30 31 10 0
-26 -21 22 23 25 27 -29 -30 -31 -10 0
-26 -21 22 23 25 -27 29 30 31 10 0
-26 -21 22 23 25 -27 29 30 -31 10 0
-26 -21 22 23 25 -27 29 -30 31 10 0
-26 -21 22 23 25 -27 29 -30 -31 -10 0
-26 -21 22 23 25 -27 -29 30 31 10 0
-26 -21 22 23 25 -27 -29 30 -31 -10 0
-26 -21 22 23 25 -27 -29 -30 31 -10 0
-26 -21 22 23 25 -27 -29 -30 -31 -10 0
-26 -21 22 23 -25 27 29 30 31 10 0
-26 -21 22 23 -25 27 29 30 -31 10 0
-26 -21 22 23 -25 27 29 -30 31 10 0
-26 -21 22 23 -25 27 29 -30 -31 -10 0
-26 -21 22 23 -25 27 -29 30 31 10 0
-26 -21 22 23 -25 27 -29 30 -31 -10 0
-26 -21 22 23 -25 27 -29 -30 31 -10 0
-26 -21 22 23 -25 27 -29 -30 -31 -10 0
-26 -21 22 23 -25 -27 29 30 31 10 0
-26 -21 22 23 -25 -27 29 30 -31 -10 0
-26 -21 22 23 -25 -27 29 -30 31 -10 0
-26 -21 22 23 -25 -27 29 -30 -31 -10 0
-26 -21 22 23 -25 -27 -29 30 31 -10 0
-26 -21 22 23 -25 -27 -29 30 -31 -10 0
-26 -21 22 23 -25 -27 -29 -30 31 -10 0
-26 -21 22 23 -25 -27 -29 -30 -31 -10 0
-26 -21 22 -23 25 27 29 30 31 10 0
-26 -21 22 -23 25 27 29 30 -31 10 0
-26 -21 22 -23 25 27 29 -30 31 10 0
-26 -21 22 -23 25 27 29 -30 -31 -10 0
-26 -21 22 -23 25 27 -29 30 31 10 0
-26 -21 22 -23 25 27 -29 30 -31 -10 0
-26 -21 22 -23 25 27 -29 -30 31 -10 0
-26 -21 22 -23 25 27 -29 -30 -31 -10 0
-26 -21 22 -23 25 -27 29 30 31 10 0
-26 -21 22 -23 25 -27 29 30 -31 -10 0
-26 -21 22 -23 25 -27 29 -30 31 -10 0
-26 -21 22 -23 25 -27 29 -30 -31 -10 0
-26 -21 22 -23 25 -27 -29 30 31 -10 0
-26 -21 22 -23 25 -27 -29 30 -31 -10 0
-26 -21 22 -23 25 -27 -29 -30 31 -10 0
-26 -21 22 -23 25 -27 -29 -30 -31 -10 0
-26 -21 22 -23 -25 27 29 30 31 10 0
-26 -21 22 -23 -25 27 29 30 -31 -10 0
-26 -21 22 -23 -25 27 29 -30 31 -10 0
-26 -21 22 -23 -25 27 29 -30 -31 -10 0
-26 -21 22 -23 -25 27 -29 30 31 -10 0
-26 -21 22 -23 -25 27 -29 30 -31 -10 0
-26 -21 22 -23 -25 27 -29 -30 31 -10 0
-26 -21 22 -23 -25 27 -29 -30 -31 -10 0
-26 -21 22 -23 -25 -27 29 30 31 -10 0
-26 -21 22 -23 -25 -27 29 30 -31 -10 0
-26 -21 22 -23 -25 -27 29 -30 31 -10 0
-26 -21 22 -23 -25 -27 29 -30 -31 -10 0
-26 -21 22 -23 -25 -27 -29 30 31 -10 0
-26 -21 22 -23 -25 -27 -29 30 -31 -10 0
-26 -21 22 -23 -25 -27 -29 -30 31 -10 0
-26 -21 22 -23 -25 -27 -29 -30 -31 -10 0
-26 -21 -22 23 25 27 29 30 31 10 0
-26 -21 -22 23 25 27 29 30 -31 10 0
-26 -21 -22 23 25 27 29 -30 31 10 0
-26 -21 -22 23 25 27 29 -30 -31 -10 0
-26 -21 -22 23 25 27 -29 30 31 10 0
-26 -21 -22 23 25 27 -29 30 -31 -10 0
-26 -21 -22 23 25 27 -29 -30 31 -10 0
-26 -21 -22 23 25 27 -29 -30 -31 -10 0
-26 -21 -22 23 25 -27 29 30 31 10 0
-26 -21 -22 23 25 -27 29 30 -31 -10 0
-26 -21 -22 23 25 -27 29 -30 31 -10 0
-26 -21 -22 23 25 -27 29 -30 -31 -10 0
-26 -21 -22 23 25 -27 -29 30 31 -10 0
-26 -21 -22 23 25 -27 -29 30 -31 -10 0
-26 -21 -22 23 25 -27 -29 -30 31 -10 0
-26 -21 -22 23 25 -27 -29 -30 -31 -10 0
-26 -21 -22 23 -25 27 29 30 31 10 0
-26 -21 -22 23 -25 27 29 30 -31 -10 0
-26 -21 -22 23 -25 27 29 -30 31 -10 0
-26 -21 -22 23 -25 27 29 -30 -31 -10 0
-26 -21 -22 23 -25 27 -29 30 31 -10 0
-26 -21 -22 23 -25 27 -29 30 -31 -10 0
-26 -21 -22 23 -25 27 -29 -30 31 -10 0
-26 -21 -22 23 -25 27 -29 -30 -31 -10 0
-26 -21 -22 23 -25 -27 29 30 31 -10 0
-26 -21 -22 23 -25 -27 29 30 -31 -10 0
-26 -21 -22 23 -25 -27 29 -30 31 -10 0
-26 -21 -22 23 -25 -27 29 -30 -31 -10 0
-26 -21 -22 23 -25 -27 -29 30 31 -10 0
-26 -21 -22 23 -25 -27 -29 30 -31 -10 0
-26 -21 -22 23 -25 -27 -29 -30 31 -10 0
-26 -21 -22 23 -25 -27 -29 -30 -31 -10 0
-26 -21 -22 -23 25 27 29 30 31 10 0
-26 -21 -22 -23 25 27 29 30 -31 -10 0
-26 -21 -22 -23 25 27 29 -30 31 -10 0
-26 -21 -22 -23 25 27 29 -30 -31 -10 0
-26 -21 -22 -23 25 27 -29 30 31 -10 0
-26 -21 -22 -23 25 27 -29 30 -31 -10 0
-26 -21 -22 -23 25 27 -29 -30 31 -10 0
-26 -21 -22 -23 25 27 -29 -30 -31 -10 0
-26 -21 -22 -23 25 -27 29 30 31 -10 0
-26 -21 -22 -23 25 -27 29 30 -31 -10 0
-26 -21 -22 -23 25 -27 29 -30 31 -10 0
-26 -21 -22 -23 25 -27 29 -30 -31 -10 0
-26 -21 -22 -23 25 -27 -29 30 31 -10 0
-26 -21 -22 -23 25 -27 -29 30 -31 -10 0
-26 -21 -22 -23 25 -27 -29 -30 31 -10 0
-26 -21 -22 -23 25 -27 -29 -30 -31 -10 0
-26 -21 -22 -23 -25 27 29 30 31 -10 0
-26 -21 -22 -23 -25 27 29 30 -31 -10 0
-26 -21 -22 -23 -25 27 29 -30 31 -10 0
-26 -21 -22 -23 -25 27 29 -30 -31 -10 0
-26 -21 -22 -23 -25 27 -29 30 31 -10 0
-26 -21 -22 -23 -25 27 -29 30 -31 -10 0
-26 -21 -22 -23 -25 27 -29 -30 31 -10 0
-26 -21 -22 -23 -25 27 -29 -30 -31 -10 0
-26 -21 -22 -23 -25 -27 29 30 31 -10 0
-26 -21 -22 -23 -25 -27 29 30 -31 -10 0
-26 -21 -22 -23 -25 -27 29 -30 31 -10 0
-26 -21 -22 -23 -25 -27 29 -30 -31 -10 0
-26 -21 -22 -23 -25 -27 -29 30 31 -10 0
-26 -21 -22 -23 -25 -27 -29 30 -31 -10 0
-26 -21 -22 -23 -25 -27 -29 -30 31 -10 0
-26 -21 -22 -23 -25 -27 -29 -30 -31 -10 0
27 22 23 24 26 28 30 31 32 -11 0
27 22 23 24 26 28 30 31 -32 -11 0
27 22 23 24 26 28 30 -31 32 -11 0
27 22 23 24 26 28 30 -31 -32 -11 0
27 22 23 24 26 28 -30 31 32 -11 0
27 22 23 24 26 28 -30 31 -32 -11 0
27 22 23 24 26 28 -30 -31 32 -11 0
27 22 23 24 26 28 -30 -31 -32 11 0
27 22 23 24 26 -28 30 31 32 -11 0
27 22 23 24 26 -28 30 31 -32 -11 0
27 22 23 24 26 -28 30 -31 32 -11 0
27 22 23 24 26 -28 30 -31 -32 11 0
27 22 23 24 26 -28 -30 31 32 -11 0
27 22 23 24 26 -28 -30 31 -32 11 0
27 22 23 24 26 -28 -30 -31 32 11 0
27 22 23 24 26 -28 -30 -31 -32 -11 0
27 22 23 24 -26 28 30 31 32 -11 0
27 22 23 24 -26 28 30 31 -32 -11 0
27 22 23 24 -26 28 30 -31 32 -11 0
27 22 23 24 -26 28 30 -31 -32 11 0
27 22 23 24 -26 28 -30 31 32 -11 0
27 22 23 24 -26 28 -30 31 -32 11 0
27 22 23 24 -26 28 -30 -31 32 11 0
27 22 23 24 -26 28 -30 -31 -32 -11 0
27 22 23 24 -26 -28 30 31 32 -11 0
27 22 23 24 -26 -28 30 31 -32 11 0
27 22 23 24 -26 -28 30 -31 32 11 0
27 22 23 24 -26 -28 30 -31 -32 -11 0
27 22 23 24 -26 -28 -30 31 32 11 0
27 22 23 24 -26 -28 -30 31 -32 -11 0
27 22 23 24 -26 -28 -30 -31 32 -11 0
27 22 23 24 -26 -28 -30 -31 -32 -11 0
27 22 23 -24 26 28 30 31 32 -11 0
27 22 23 -24 26 28 30 31 -32 -11 0
27 22 23 -24 26 28 30 -31 32 -11 0
27 22 23 -24 26 28 30 -31 -32 11 0
27 22 23 -24 26 28 -30 31 32 -11 0
27 22 23 -24 26 28 -30 31 -32 11 0
27 22 23 -24 26 28 -30 -31 32 11 0
27 22 23 -24 26 28 -30 -31 -32 -11 0
27 22 23 -24 26 -28 30 31 32 -11 0
27 22 23 -24 26 -28 30 31 -32 11 0
27 22 23 -24 26 -28 30 -31 32 11 0
27 22 23 -24 26 -28 30 -31 -32 -11 0
27 22 23 -24 26 -28 -30 31 32 11 0
27 22 23 -24 26 -28 -30 31 -32 -11 0
27 22 23 -24 26 -28 -30 -31 32 -11 0
27 22 23 -24 26 -28 -30 -31 -32 -11 0
27 22 23 -24 -26 28 30 31 32 -11 0
27 22 23 -24 -26 28 30 31 -32 11 0
27 22 23 -24 -26 28 30 -31 32 11 0
27 22 23 -24 -26 28 30 -31 -32 -11 0
27 22 23 -24 -26 28 -30 31 32 11 0
27 22 23 -24 -26 28 -30 31 -32 -11 0
27 22 23 -24 -26 28 -30 -31 32 -11 0
27 22 23 -24 -26 28 -30 -31 -32 -11 0
27 22 23 -24 -26 -28 30 31 32 11 0
27 22 23 -24 -26 -28 30 31 -32 -11 0
27 22 23 -24 -26 -28 30 -31 32 -11 0
27 22 23 -24 -26 -28 30 -31 -32 -11 0
27 22 23 -24 -26 -28 -30 31 32 -11 0
27 22 23 -24 -26 -28 -30 31 -32 -11 0
27 22 23 -24 -26 -28 -30 -31 32 -11 0
27 22 23 -24 -26 -28 -30 -31 -32 -11 0
27 22 -23 24 26 28 30 31 32 -11 0
27 22 -23 24 26 28 30 31 -32 -11 0
27 22 -23 24 26 28 30 -31 32 -11 0
27 22 -23 24 26 28 30 -31 -32 11 0
27 22 -23 24 26 28 -30 31 32 -11 0
27 22 -23 24 26 28 -30 31 -32 11 0
27 22 -23 24 26 28 -30 -31 32 11 0
27 22 -23 24 26 28 -30 -31 -32 -11 0
27 22 -23 24 26 -28 30 31 32 -11 0
27 22 -23 24 26 -28 30 31 -32 11 0
27 22 -23 24 26 -28 30 -31 32 11 0
27 22 -23 24 26 -28 30 -31 -32 -11 0
27 22 -23 24 26 -28 -30 31 32 11 0
27 22 -23 24 26 -28 -30 31 -32 -11 0
27 22 -23 24 26 -28 -30 -31 32 -11 0
27 22 -23 24 26 -28 -30 -31 -32 -11 0
27 22 -23 24 -26 28 30 31 32 -11 0
27 22 -23 24 -26 28 30 31 -32 11 0
27 22 -23 24 -26 28 30 -31 32 11 0
27 22 -23 24 -26 28 30 -31 -32 -11 0
27 22 -23 24 -26 28 -30 31 32 11 0
27 22 -23 24 -26 28 -30 31 -32 -11 0
27 22 -23 24 -26 28 -30 -31 32 -11 0
27 22 -23 24 -26 28 -30 -31 -32 -11 0
27 22 -23 24 -26 -28 30 31 32 11 0
27 22 -23 24 -26 -28 30 31 -32 -11 0
27 22 -23 24 -26 -28 30 -31 32 -11 0
27 22 -23 24 -26 -28 30 -31 -32 -11 0
27 22 -23 24 -26 -28 -30 31 32 -11 0
27 22 -23 24 -26 -28 -30 31 -32 -11 0
27 22 -23 24 -26 -28 -30 -31 32 -11 0
27 22 -23 24 -26 -28 -30 -31 -32 -11 0
27 22 -23 -24 26 28 30 31 32 -11 0
27 22 -23 -24 26 28 30 31 -32 11 0
27 22 -23 -24 26 28 30 -31 32 11 0
27 22 -23 -24 26 28 30 -31 -32 -11 0
27 22 -23 -24 26 28 -30 31 32 11 0
27 22 -23 -24 26 28 -30 31 -32 -11 0
27 22 -23 -24 26 28 -30 -31 32 -11 0
27 22 -23 -24 26 28 -30 -31 -32 -11 0
27 22 -23 -24 26 -28 30 31 32 11 0
27 22 -23 -24 26 -28 30 31 -32 -11 0
27 22 -23 -24 26 -28 30 -31 32 -11 0
27 22 -23 -24 26 -28 30 -31 -32 -11 0
27 22 -23 -24 26 -28 -30 31 32 -11 0
27 22 -23 -24 26 -28 -30 31 -32 -11 0
27 22 -23 -24 26 -28 -30 -31 32 -11 0
27 22 -23 -24 26 -28 -30 -31 -32 -11 0
27 22 -23 -24 -26 28 30 31 32 11 0
27 22 -23 -24 -26 28 30 31 -32 -11 0
27 22 -23 -24 -26 28 30 -31 32 -11 0
27 22 -23 -24 -26 28 30 -31 -32 -11 0
27 22 -23 -24 -26 28 -30 31 32 -11 0
27 22 -23 -24 -26 28 -30 31 -32 -11 0
27 22 -23 -24 -26 28 -30 -31 32 -11 0
27 22 -23 -24 -26 28 -30 -31 -32 -11 0
27 22 -23 -24 -26 -28 30 31 32 -11 0
27 22 -23 -24 -26 -28 30 31 -32 -11 0
27 22 -23 -24 -26 -28 30 -31 32 -11 0
27 22 -23 -24 -26 -28 30 -31 -32 -11 0
27 22 -23 -24 -26 -28 -30 31 32 -11 0
27 22 -23 -24 -26 -28 -30 31 -32 -11 0
27 22 -23 -24 -26 -28 -30 -31 32 -11 0
27 22 -23 -24 -26 -28 -30 -31 -32 -11 0
27 -22 23 24 26 28 30 31 32 -11 0
27 -22 23 24 26 28 30 31 -32 -11 0
27 -22 23 24 26 28 30 -31 32 -11 0
27 -22 23 24 26 28 30 -31 -32 11 0
27 -22 23 24 26 28 -30 31 32 -11 0
27 -22 23 24 26 28 -30 31 -32 11 0
27 -22 23 24 26 28 -30 -31 32 11 0
27 -22 23 24 26 28 -30 -31 -32 -11 0
27 -22 23 24 26 -28 30 31 32 -11 0
27 -22 23 24 26 -28 30 31 -32 11 0
27 -22 23 24 26 -28 30 -31 32 11 0
27 -22 23 24 26 -28 30 -31 -32 -11 0
27 -22 23 24 26 -28 -30 31 32 11 0
27 -22 23 24 26 -28 -30 31 -32 -11 0
27 -22 23 24 26 -28 -30 -31 32 -11 0
27 -22 23 24 26 -28 -30 -31 -32 -11 0
27 -22 23 24 -26 28 30 31 32 -11 0
27 -22 23 24 -26 28 30 31 -32 11 0
27 -22 23 24 -26 28 30 -31 32 11 0
27 -22 23 24 -26 28 30 -31 -32 -11 0
27 -22 23 24 -26 28 -30 31 32 11 0
27 -22 23 24 -26 28 -30 31 -32 -11 0
27 -22 23 24 -26 28 -30 -31 32 -11 0
27 -22 23 24 -26 28 -30 -31 -32 -11 0
27 -22 23 24 -26 -28 30 31 32 11 0
27 -22 23 24 -26 -28 30 31 -32 -11 0
27 -22 23 24 -26 -28 30 -31 32 -11 0
27 -22 23 24 -26 -28 30 -31 -32 -11 0
27 -22 23 24 -26 -28 -30 31 32 -11 0
27 -22 23 24 -26 -28 -30 31 -32 -11 0
27 -22 23 24 -26 -28 -30 -31 32 -11 0
27 -22 23 24 -26 -28 -30 -31 -32 -11 0
27 -22 23 -24 26 28 30 31 32 -11 0
27 -22 23 -24 26 28 30 31 -32 11 0
27 -22 23 -24 26 28 30 -31 32 11 0
27 -22 23 -24 26 28 30 -31 -32 -11 0
27 -22 23 -24 26 28 -30 31 32 11 0
27 -22 23 -24 26 28 -30 31 -32 -11 0
27 -22 23 -24 26 28 -30 -31 32 -11 0
27 -22 23 -24 26 28 -30 -31 -32 -11 0
27 -22 23 -24 26 -28 30 31 32 11 0
27 -22 23 -24 26 -28 30 31 -32 -11 0
27 -22 23 -24 26 -28 30 -31 32 -11 0
27 -22 23 -24 26 -28 30 -31 -32 -11 0
27 -22 23 -24 26 -28 -30 31 32 -11 0
27 -22 23 -24 26 -28 -30 31 -32 -11 0
27 -22 23 -24 26 -28 -30 -31 32 -11 0
27 -22 23 -24 26 -28 -30 -31 -32 -11 0
27 -22 23 -24 -26 28 30 31 32 11 0
27 -22 23 -24 -26 28 30 31 -32 -11 0
27 -22 23 -24 -26 28 30 -31 32 -11 0
27 -22 23 -24 -26 28 30 -31 -32 -11 0
27 -22 23 -24 -26 28 -30 31 32 -11 0
27 -22 23 -24 -26 28 -30 31 -32 -11 0
27 -22 23 -24 -26 28 -30 -31 32 -11 0
27 -22 23 -24 -26 28 -30 -31 -32 -11 0
27 -22 23 -24 -26 -28 30 31 32 -11 0
27 -22 23 -24 -26 -28 30 31 -32 -11 0
27 -22 23 -24 -26 -28 30 -31 32 -11 0
27 -22 23 -24 -26 -28 30 -31 -32 -11 0
27 -22 23 -24 -26 -28 -30 31 32 -11 0
27 -22 23 -24 -26 -28 -30 31 -32 -11 0
27 -22 23 -24 -26 -28 -30 -31 32 -11 0
27 -22 23 -24 -26 -28 -30 -31 -32 -11 0
27 -22 -23 24 26 28 30 31 32 -11 0
27 -22 -23 24 26 28 30 31 -32 11 0
27 -22 -23 24 26 28 30 -31 32 11 0
27 -22 -23 24 26 28 30 -31 -32 -11 0
27 -22 -23 24 26 28 -30 31 32 11 0
27 -22 -23 24 26 28 -30 31 -32 -11 0
27 -22 -23 24 26 28 -30 -31 32 -11 0
27 -22 -23 24 26 28 -30 -31 -32 -11 0
27 -22 -23 24 26 -28 30 31 32 11 0
27 -22 -23 24 26 -28 30 31 -32 -11 0
27 -22 -23 24 26 -28 30 -31 32 -11 0
27 -22 -23 24 26 -28 30 -31 -32 -11 0
27 -22 -23 24 26 -28 -30 31 32 -11 0
27 -22 -23 24 26 -28 -30 31 -32 -11 0
27 -22 -23 24 26 -28 -30 -31 32 -11 0
27 -22 -23 24 26 -28 -30 -31 -32 -11 0
27 -22 -23 24 -26 28 30 31 32 11 0
27 -22 -23 24 -26 28 30 31 -32 -11 0
27 -22 -23 24 -26 28 30 -31 32 -11 0
27 -22 -23 24 -26 28 30 -31 -32 -11 0
27 -22 -23 24 -26 28 -30 31 32 -11 0
27 -22 -23 24 -26 28 -30 31 -32 -11 0
27 -22 -23 24 -26 28 -30 -31 32 -11 0
27 -22 -23 24 -26 28 -30 -31 -32 -11 0
27 -22 -23 24 -26 -28 30 31 32 -11 0
27 -22 -23 24 -26 -28 30 31 -32 -11 0
27 -22 -23 24 -26 -28 30 -31 32 -11 0
27 -22 -23 24 -26 -28 30 -31 -32 -11 0
27 -22 -23 24 -26 -28 -30 31 32 -11 0
27 -22 -23 24 -26 -28 -30 31 -32 -11 0
27 -22 -23 24 -26 -28 -30 -31 32 -11 0
27 -22 -23 24 -26 -28 -30 -31 -32 -11 0
27 -22 -23 -24 26 28 30 31 32 11 0
27 -22 -23 -24 26 28 30 31 -32 -11 0
27 -22 -23 -24 26 28 30 -31 32 -11 0
27 -22 -23 -24 26 28 30 -31 -32 -11 0
27 -22 -23 -24 26 28 -30 31 32 -11 0
27 -22 -23 -24 26 28 -30 31 -32 -11 0
27 -22 -23 -24 26 28 -30 -31 32 -11 0
27 -22 -23 -24 26 28 -30 -31 -32 -11 0
27 -22 -23 -24 26 -28 30 31 32 -11 0
27 -22 -23 -24 26 -28 30 31 -32 -11 0
27 -22 -23 -24 26 -28 30 -31 32 -11 0
27 -22 -23 -24 26 -28 30 -31 -32 -11 0
27 -22 -23 -24 26 -28 -30 31 32 -11 0
27 -22 -23 -24 26 -28 -30 31 -32 -11 0
27 -22 -23 -24 26 -28 -30 -31 32 -11 0
27 -22 -23 -24 26 -28 -30 -31 -32 -11 0
27 -22 -23 -24 -26 28 30 31 32 -11 0
27 -22 -23 -24 -26 28 30 31 -32 -11 0
27 -22 -23 -24 -26 28 30 -31 32 -11 0
27 -22 -23 -24 -26 28 30 -31 -32 -11 0
27 -22 -23 -24 -26 28 -30 31 32 -11 0
27 -22 -23 -24 -26 28 -30 31 -32 -11 0
27 -22 -23 -24 -26 28 -30 -31 32 -11 0
27 -22 -23 -24 -26 28 -30 -31 -32 -11 0
27 -22 -23 -24 -26 -28 30 31 32 -11 0
27 -22 -23 -24 -26 -28 30 31 -32 -11 0
27 -22 -23 -24 -26 -28 30 -31 32 -11 0
27 -22 -23 -24 -26 -28 30 -31 -32 -11 0
27 -22 -23 -24 -26 -28 -30 31 32 -11 0
27 -22 -23 -24 -26 -28 -30 31 -32 -11 0
27 -22 -23 -24 -26 -28 -30 -31 32 -11 0
27 -22 -23 -24 -26 -28 -30 -31 -32 -11 0
-27 22 23 24 26 28 30 31 32 -11 0
-27 22 23 24 26 28 30 31 -32 -11 0
-27 22 23 24 26 28 30 -31 32 -11 0
-27 22 23 24 26 28 30 -31 -32 11 0
-27 22 23 24 26 28 -30 31 32 -11 0
-27 22 23 24 26 28 -30 31 -32 11 0
-27 22 23 24 26 28 -30 -31 32 11 0
-27 22 23 24 26 28 -30 -31 -32 11 0
-27 22 23 24 26 -28 30 31 32 -11 0
-27 22 23 24 26 -28 30 31 -32 11 0
-27 22 23 24 26 -28 30 -31 32 11 0
-27 22 23 24 26 -28 30 -31 -32 11 0
-27 22 23 24 26 -28 -30 31 32 11 0
-27 22 23 24 26 -28 -30 31 -32 11 0
-27 22 23 24 26 -28 -30 -31 32 11 0
-27 22 23 24 26 -28 -30 -31 -32 -11 0
-27 22 23 24 -26 28 30 31 32 -11 0
-27 22 23 24 -26 28 30 31 -32 11 0
-27 22 23 24 -26 28 30 -31 32 11 0
-27 22 23 24 -26 28 30 -31 -32 11 0
-27 22 23 24 -26 28 -30 31 32 11 0
-27 22 23 24 -26 28 -30 31 -32 11 0
-27 22 23 24 -26 28 -30 -31 32 11 0
-27 22 23 24 -26 28 -30 -31 -32 -11 0
-27 22 23 24 -26 -28 30 31 32 11 0
-27 22 23 24 -26 -28 30 31 -32 11 0
-27 22 23 24 -26 -28 30 -31 32 11 0
-27 22 23 24 -26 -28 30 -31 -32 -11 0
-27 22 23 24 -26 -28 -30 31 32 11 0
-27 22 23 24 -26 -28 -30 31 -32 -11 0
-27 22 23 24 -26 -28 -30 -31 32 -11 0
-27 22 23 24 -26 -28 -30 -31 -32 -11 0
-27 22 23 -24 26 28 30 31 32 -11 0
-27 22 23 -24 26 28 30 31 -32 11 0
-27 22 23 -24 26 28 30 -31 32 11 0
-27 22 23 -24 26 28 30 -31 -32 11 0
-27 22 23 -24 26 28 -30 31 32 11 0
-27 22 23 -24 26 28 -30 31 -32 11 0
-27 22 23 -24 26 28 -30 -31 32 11 0
-27 22 23 -24 26 28 -30 -31 -32 -11 0
-27 22 23 -24 26 -28 30 31 32 11 0
-27 22 23 -24 26 -28 30 31 -32 11 0
-27 22 23 -24 26 -28 30 -31 32 11 0
-27 22 23 -24 26 -28 30 -31 -32 -11 0
-27 22 23 -24 26 -28 -30 31 32 11 0
-27 22 23 -24 26 -28 -30 31 -32 -11 0
-27 22 23 -24 26 -28 -30 -31 32 -11 0
-27 22 23 -24 26 -28 -30 -31 -32 -11 0
-27 22 23 -24 -26 28 30 31 32 11 0
-27 22 23 -24 -26 28 30 31 -32 11 0
-27 22 23 -24 -26 28 30 -31 32 11 0
-27 22 23 -24 -26 28 30 -31 -32 -11 0
-27 22 23 -24 -26 28 -30 31 32 11 0
-27 22 23 -24 -26 28 -30 31 -32 -11 0
-27 22 23 -24 -26 28 -30 -31 32 -11 0
-27 22 23 -24 -26 28 -30 -31 -32 -11 0
-27 22 23 -24 -26 -28 30 31 32 11 0
-27 22 23 -24 -26 -28 30 31 -32 -11 0
-27 22 23 -24 -26 -28 30 -31 32 -11 0
-27 22 23 -24 -26 -28 30 -31 -32 -11 0
-27 22 23 -24 -26 -28 -30 31 32 -11 0
-27 22 23 -24 -26 -28 -30 31 -32 -11 0
-27 22 23 -24 -26 -28 -30 -31 32 -11 0
-27 22 23 -24 -26 -28 -30 -31 -32 -11 0
-27 22 -23 24 26 28 30 31 32 -11 0
-27 22 -23 24 26 28 30 31 -32 11 0
-27 22 -23 24 26 28 30 -31 32 11 0
-27 22 -23 24 26 28 30 -31 -32 11 0
-27 22 -23 24 26 28 -30 31 32 11 0
-27 22 -23 24 26 28 -30 31 -32 11 0
-27 22 -23 24 26 28 -30 -31 32 11 0
-27 22 -23 24 26 28 -30 -31 -32 -11 0
-27 22 -23 24 26 -28 30 31 32 11 0
-27 22 -23 24 26 -28 30 31 -32 11 0
-27 22 -23 24 26 -28 30 -31 32 11 0
-27 22 -23 24 26 -28 30 -31 -32 -11 0
-27 22 -23 24 26 -28 -30 31 32 11 0
-27 22 -23 24 26 -28 -30 31 -32 -11 0
-27 22 -23 24 26 -28 -30 -31 32 -11 0
-27 22 -23 24 26 -28 -30 -31 -32 -11 0
-27 22 -23 24 -26 28 30 31 32 11 0
-27 22 -23 24 -26 28 30 31 -32 11 0
-27 22 -23 24 -26 28 30 -31 32 11 0
-27 22 -23 24 -26 28 30 -31 -32 -11 0
-27 22 -23 24 -26 28 -30 31 32 11 0
-27 22 -23 24 -26 28 -30 31 -32 -11 0
-27 22 -23 24 -26 28 -30 -31 32 -11 0
-27 22 -23 24 -26 28 -30 -31 -32 -11 0
-27 22 -23 24 -26 -28 30 31 32 11 0
-27 22 -23 24 -26 -28 30 31 -32 -11 0
-27 22 -23 24 -26 -28 30 -31 32 -11 0
-27 22 -23 24 -26 -28 30 -31 -32 -11 0
-27 22 -23 24 -26 -28 -30 31 32 -11 0
-27 22 -23 24 -26 -28 -30 31 -32 -11 0
-27 22 -23 24 -26 -28 -30 -31 32 -11 0
-27 22 -23 24 -26 -28 -30 -31 -32 -11 0
-27 22 -23 -24 26 28 30 31 32 11 0
-27 22 -23 -24 26 28 30 31 -32 11 0
-27 22 -23 -24 26 28 30 -31 32 11 0
-27 22 -23 -24 26 28 30 -31 -32 -11 0
-27 22 -23 -24 26 28 -30 31 32 11 0
-27 22 -23 -24 26 28 -30 31 -32 -11 0
-27 22 -23 -24 26 28 -30 -31 32 -11 0
-27 22 -23 -24 26 28 -30 -31 -32 -11 0
-27 22 -23 -24 26 -28 30 31 32 11 0
-27 22 -23 -24 26 -28 30 31 -32 -11 0
-27 22 -23 -24 26 -28 30 -31 32 -11 0
-27 22 -23 -24 26 -28 30 -31 -32 -11 0
-27 22 -23 -24 26 -28 -30 31 32 -11 0
-27 22 -23 -24 26 -28 -30 31 -32 -11 0
-27 22 -23 -24 26 -28 -30 -31 32 -11 0
-27 22 -23 -24 26 -28 -30 -31 -32 -11 0
-27 22 -23 -24 -26 28 30 31 32 11 0
-27 22 -23 -24 -26 28 30 31 -32 -11 0
-27 22 -23 -24 -26 28 30 -31 32 -11 0
-27 22 -23 -24 -26 28 30 -31 -32 -11 0
-27 22 -23 -24 -26 28 -30 31 32 -11 0
-27 22 -23 -24 -26 28 -30 31 -32 -11 0
-27 22 -23 -24 -26 28 -30 -31 32 -11 0
-27 22 -23 -24 -26 28 -30 -31 -32 -11 0
-27 22 -23 -24 -26 -28 30 31 32 -11 0
-27 22 -23 -24 -26 -28 30 31 -32 -11 0
-27 22 -23 -24 -26 -28 30 -31 32 -11 0
-27 22 -23 -24 -26 -28 30 -31 -32 -11 0
-27 22 -23 -24 -26 -28 -30 31 32 -11 0
-27 22 -23 -24 -26 -28 -30 31 -32 -11 0
-27 22 -23 -24 -26 -28 -30 -31 32 -11 0
-27 22 -23 -24 -26 -28 -30 -31 -32 -11 0
-27 -22 23 24 26 28 30 31 32 -11 0
-27 -22 23 24 26 28 30 31 -32 11 0
-27 -22 23 24 26 28 30 -31 32 11 0
-27 -22 23 24 26 28 30 -31 -32 11 0
-27 -22 23 24 26 28 -30 31 32 11 0
-27 -22 23 24 26 28 -30 31 -32 11 0
-27 -22 23 24 26 28 -30 -31 32 11 0
-27 -22 23 24 26 28 -30 -31 -32 -11 0
-27 -22 23 24 26 -28 30 31 32 11 0
-27 -22 23 24 26 -28 30 31 -32 11 0
-27 -22 23 24 26 -28 30 -31 32 11 0
-27 -22 23 24 26 -28 30 -31 -32 -11 0
-27 -22 23 24 26 -28 -30 31 32 11 0
-27 -22 23 24 26 -28 -30 31 -32 -11 0
-27 -22 23 24 26 -28 -30 -31 32 -11 0
-27 -22 23 24 26 -28 -30 -31 -32 -11 0
-27 -22 23 24 -26 28 30 31 32 11 0
-27 -22 23 24 -26 28 30 31 -32 11 0
-27 -22 23 24 -26 28 30 -31 32 11 0
-27 -22 23 24 -26 28 30 -31 -32 -11 0
-27 -22 23 24 -26 28 -30 31 32 11 0
-27 -22 23 24 -26 28 -30 31 -32 -11 0
-27 -22 23 24 -26 28 -30 -31 32 -11 0
-27 -22 23 24 -26 28 -30 -31 -32 -11 0
-27 -22 23 24 -26 -28 30 31 32 11 0
-27 -22 23 24 -26 -28 30 31 -32 -11 0
-27 -22 23 24 -26 -28 30 -31 32 -11 0
-27 -22 23 24 -26 -28 30 -31 -32 -11 0
-27 -22 23 24 -26 -28 -30 31 32 -11 0
-27 -22 23 24 -26 -28 -30 31 -32 -11 0
-27 -22 23 24 -26 -28 -30 -31 32 -11 0
-27 -22 23 24 -26 -28 -30 -31 -32 -11 0
-27 -22 23 -24 26 28 30 31 32 11 0
-27 -22 23 -24 26 28 30 31 -32 11 0
-27 -22 23 -24 26 28 30 -31 32 11 0
-27 -22 23 -24 26 28 30 -31 -32 -11 0
-27 -22 23 -24 26 28 -30 31 32 11 0
-27 -22 23 -24 26 28 -30 31 -32 -11 0
-27 -22 23 -24 26 28 -30 -31 32 -11 0
-27 -22 23 -24 26 28 -30 -31 -32 -11 0
-27 -22 23 -24 26 -28 30 31 32 11 0
-27 -22 23 -24 26 -28 30 31 -32 -11 0
-27 -22 23 -24 26 -28 30 -31 32 -11 0
-27 -22 23 -24 26 -28 30 -31 -32 -11 0
-27 -22 23 -24 26 -28 -30 31 32 -11 0
-27 -22 23 -24 26 -28 -30 31 -32 -11 0
-27 -22 23 -24 26 -28 -30 -31 32 -11 0
-27 -22 23 -24 26 -28 -30 -31 -32 -11 0
-27 -22 23 -24 -26 28 30 31 32 11 0
-27 -22 23 -24 -26 28 30 31 -32 -11 0
-27 -22 23 -24 -26 28 30 -31 32 -11 0
-27 -22 23 -24 -26 28 30 -31 -32 -11 0
-27 -22 23 -24 -26 28 -30 31 32 -11 0
-27 -22 23 -24 -26 28 -30 31 -32 -11 0
-27 -22 23 -24 -26 28 -30 -31 32 -11 0
-27 -22 23 -24 -26 28 -30 -31 -32 -11 0
-27 -22 23 -24 -26 -28 30 31 32 -11 0
-27 -22 23 -24 -26 -28 30 31 -32 -11 0
-27 -22 23 -24 -26 -28 30 -31 32 -11 0
-27 -22 23 -24 -26 -28 30 -31 -32 -11 0
-27 -22 23 -24 -26 -28 -30 31 32 -11 0
-27 -22 23 -24 -26 -28 -30 31 -32 -11 0
-27 -22 23 -24 -26 -28 -30 -31 32 -11 0
-27 -22 23 -24 -26 -28 -30 -31 -32 -11 0
-27 -22 -23 24 26 28 30 31 32 11 0
-27 -22 -23 24 26 28 30 31 -32 11 0
-27 -22 -23 24 26 28 30 -31 32 11 0
-27 -22 -23 24 26 28 30 -31 -32 -11 0
-27 -22 -23 24 26 28 -30 31 32 11 0
-27 -22 -23 24 26 28 -30 31 -32 -11 0
-27 -22 -23 24 26 28 -30 -31 32 -11 0
-27 -22 -23 24 26 28 -30 -31 -32 -11 0
-27 -22 -23 24 26 -28 30 31 32 11 0
-27 -22 -23 24 26 -28 30 31 -32 -11 0
-27 -22 -23 24 26 -28 30 -31 32 -11 0
-27 -22 -23 24 26 -28 30 -31 -32 -11 0
-27 -22 -23 24 26 -28 -30 31 32 -11 0
-27 -22 -23 24 26 -28 -30 31 -32 -11 0
-27 -22 -23 24 26 -28 -30 -31 32 -11 0
-27 -22 -23 24 26 -28 -30 -31 -32 -11 0
-27 -22 -23 24 -26 28 30 31 32 11 0
-27 -22 -23 24 -26 28 30 31 -32 -11 0
-27 -22 -23 24 -26 28 30 -31 32 -11 0
-27 -22 -23 24 -26 28 30 -31 -32 -11 0
-27 -22 -23 24 -26 28 -30 31 32 -11 0
-27 -22 -23 24 -26 28 -30 31 -32 -11 0
-27 -22 -23 24 -26 28 -30 -31 32 -11 0
-27 -22 -23 24 -26 28 -30 -31 -32 -11 0
-27 -22 -23 24 -26 -28 30 31 32 -11 0
-27 -22 -23 24 -26 -28 30 31 -32 -11 0
-27 -22 -23 24 -26 -28 30 -31 32 -11 0
-27 -22 -23 24 -26 -28 30 -31 -32 -11 0
-27 -22 -23 24 -26 -28 -30 31 32 -11 0
-27 -22 -23 24 -26 -28 -30 31 -32 -11 0
-27 -22 -23 24 -26 -28 -30 -31 32 -11 0
-27 -22 -23 24 -26 -28 -30 -31 -32 -11 0
-27 -22 -23 -24 26 28 30 31 32 11 0
-27 -22 -23 -24 26 28 30 31 -32 -11 0
-27 -22 -23 -24 26 28 30 -31 32 -11 0
-27 -22 -23 -24 26 28 30 -31 -32 -11 0
-27 -22 -23 -24 26 28 -30 31 32 -11 0
-27 -22 -23 -24 26 28 -30 31 -32 -11 0
-27 -22 -23 -24 26 28 -30 -31 32 -11 0
-27 -22 -23 -24 26 28 -30 -31 -32 -11 0
-27 -22 -23 -24 26 -28 30 31 32 -11 0
-27 -22 -23 -24 26 -28 30 31 -32 -11 0
-27 -22 -23 -24 26 -28 30 -31 32 -11 0
-27 -22 -23 -24 26 -28 30 -31 -32 -11 0
-27 -22 -23 -24 26 -28 -30 31 32 -11 0
-27 -22 -23 -24 26 -28 -30 31 -32 -11 0
-27 -22 -23 -24 26 -28 -30 -31 32 -11 0
-27 -22 -23 -24 26 -28 -30 -31 -32 -11 0
-27 -22 -23 -24 -26 28 30 31 32 -11 0
-27 -22 -23 -24 -26 28 30 31 -32 -11 0
-27 -22 -23 -24 -26 28 30 -31 32 -11 0
-27 -22 -23 -24 -26 28 30 -31 -32 -11 0
-27 -22 -23 -24 -26 28 -30 31 32 -11 0
-27 -22 -23 -24 -26 28 -30 31 -32 -11 0
-27 -22 -23 -24 -26 28 -30 -31 32 -11 0
-27 -22 -23 -24 -26 28 -30 -31 -32 -11 0
-27 -22 -23 -24 -26 -28 30 31 32 -11 0
-27 -22 -23 -24 -26 -28 30 31 -32 -11 0
-27 -22 -23 -24 -26 -28 30 -31 32 -11 0
-27 -22 -23 -24 -26 -28 30 -31 -32 -11 0
-27 -22 -23 -24 -26 -28 -30 31 32 -11 0
-27 -22 -23 -24 -26 -28 -30 31 -32 -11 0
-27 -22 -23 -24 -26 -28 -30 -31 32 -11 0
-27 -22 -23 -24 -26 -28 -30 -31 -32 -11 0
28 23 24 21 27 25 31 32 29 -12 0
28 23 24 21 27 25 31 32 -29 -12 0
28 23 24 21 27 25 31 -32 29 -12 0
28 23 24 21 27 25 31 -32 -29 -12 0
28 23 24 21 27 25 -31 32 29 -12 0
28 23 24 21 27 25 -31 32 -29 -12 0
28 23 24 21 27 25 -31 -32 29 -12 0
28 23 24 21 27 25 -31 -32 -29 12 0
28 23 24 21 27 -25 31 32 29 -12 0
28 23 24 21 27 -25 31 32 -29 -12 0
28 23 24 21 27 -25 31 -32 29 -12 0
28 23 24 21 27 -25 31 -32 -29 12 0
28 23 24 21 27 -25 -31 32 29 -12 0
28 23 24 21 27 -25 -31 32 -29 12 0
28 23 24 21 27 -25 -31 -32 29 12 0
28 23 24 21 27 -25 -31 -32 -29 -12 0
28 23 24 21 -27 25 31 32 29 -12 0
28 23 24 21 -27 25 31 32 -29 -12 0
28 23 24 21 -27 25 31 -32 29 -12 0
28 23 24 21 -27 25 31 -32 -29 12 0
28 23 24 21 -27 25 -31 32 29 -12 0
28 23 24 21 -27 25 -31 32 -29 12 0
28 23 24 21 -27 25 -31 -32 29 12 0
28 23 24 21 -27 25 -31 -32 -29 -12 0
28 23 24 21 -27 -25 31 32 29 -12 0
28 23 24 21 -27 -25 31 32 -29 12 0
28 23 24 21 -27 -25 31 -32 29 12 0
28 23 24 21 -27 -25 31 -32 -29 -12 0
28 23 24 21 -27 -25 -31 32 29 12 0
28 23 24 21 -27 -25 -31 32 -29 -12 0
28 23 24 21 -27 -25 -31 -32 29 -12 0
28 23 24 21 -27 -25 -31 -32 -29 -12 0
28 23 24 -21 27 25 31 32 29 -12 0
28 23 24 -21 27 25 31 32 -29 -12 0
28 23 24 -21 27 25 31 -32 29 -12 0
28 23 24 -21 27 25 31 -32 -29 12 0
28 23 24 -21 27 25 -31 32 29 -12 0
28 23 24 -21 27 25 -31 32 -29 12 0
28 23 24 -21 27 25 -31 -32 29 12 0
28 23 24 -21 27 25 -31 -32 -29 -12 0
28 23 24 -21 27 -25 31 32 29 -12 0
28 23 24 -21 27 -25 31 32 -29 12 0
28 23 24 -21 27 -25 31 -32 29 12 0
28 23 24 -21 27 -25 31 -32 -29 -12 0
28 23 24 -21 27 -25 -31 32 29 12 0
28 23 24 -21 27 -25 -31 32 -29 -12 0
28 23 24 -21 27 -25 -31 -32 29 -12 0
28 23 24 -21 27 -25 -31 -32 -29 -12 0
28 23 24 -21 -27 25 31 32 29 -12 0
28 23 24 -21 -27 25 31 32 -29 12 0
28 23 24 -21 -27 25 31 -32 29 12 0
28 23 24 -21 -27 25 31 -32 -29 -12 0
28 23 24 -21 -27 25 -31 32 29 12 0
28 23 24 -21 -27 25 -31 32 -29 -12 0
28 23 24 -21 -27 25 -31 -32 29 -12 0
28 23 24 -21 -27 25 -31 -32 -29 -12 0
28 23 24 -21 -27 -25 31 32 29 12 0
28 23 24 -21 -27 -25 31 32 -29 -12 0
28 23 24 -21 -27 -25 31 -32 29 -12 0
28 23 24 -21 -27 -25 31 -32 -29 -12 0
28 23 24 -21 -27 -25 -31 32 29 -12 0
28 23 24 -21 -27 -25 -31 32 -29 -12 0
28 23 24 -21 -27 -25 -31 -32 29 -12 0
28 23 24 -21 -27 -25 -31 -32 -29 -12 0
28 23 -24 21 27 25 31 32 29 -12 0
28 23 -24 21 27 25 31 32 -29 -12 0
28 23 -24 21 27 25 31 -32 29 -12 0
28 23 -24 21 27 25 31 -32 -29 12 0
28 23 -24 21 27 25 -31 32 29 -12 0
28 23 -24 21 27 25 -31 32 -29 12 0
28 23 -24 21 27 25 -31 -32 29 12 0
28 23 -24 21 27 25 -31 -32 -29 -12 0
28 23 -24 21 27 -25 31 32 29 -12 0
28 23 -24 21 27 -25 31 32 -29 12 0
28 23 -24 21 27 -25 31 -32 29 12 0
28 23 -24 21 27 -25 31 -32 -29 -12 0
28 23 -24 21 27 -25 -31 32 29 12 0
28 23 -24 21 27 -25 -31 32 -29 -12 0
28 23 -24 21 27 -25 -31 -32 29 -12 0
28 23 -24 21 27 -25 -31 -32 -29 -12 0
28 23 -24 21 -27 25 31 32 29 -12 0
28 23 -24 21 -27 25 31 32 -29 12 0
28 23 -24 21 -27 25 31 -32 29 12 0
28 23 -24 21 -27 25 31 -32 -29 -12 0
28 23 -24 21 -27 25 -31 32 29 12 0
28 23 -24 21 -27 25 -31 32 -29 -12 0
28 23 -24 21 -27 25 -31 -32 29 -12 0
28 23 -24 21 -27 25 -31 -32 -29 -12 0
28 23 -24 21 -27 -25 31 32 29 12 0
28 23 -24 21 -27 -25 31 32 -29 -12 0
28 23 -24 21 -27 -25 31 -32 29 -12 0
28 23 -24 21 -27 -25 31 -32 -29 -12 0
28 23 -24 21 -27 -25 -31 32 29 -12 0
28 23 -24 21 -27 -25 -31 32 -29 -12 0
28 23 -24 21 -27 -25 -31 -32 29 -12 0
28 23 -24 21 -27 -25 -31 -32 -29 -12 0
28 23 -24 -21 27 25 31 32 29 -12 0
28 23 -24 -21 27 25 31 32 -29 12 0
28 23 -24 -21 27 25 31 -32 29 12 0
28 23 -24 -21 27 25 31 -32 -29 -12 0
28 23 -24 -21 27 25 -31 32 29 12 0
28 23 -24 -21 27 25 -31 32 -29 -12 0
28 23 -24 -21 27 25 -31 -32 29 -12 0
28 23 -24 -21 27 25 -31 -32 -29 -12 0
28 23 -24 -21 27 -25 31 32 29 12 0
28 23 -24 -21 27 -25 31 32 -29 -12 0
28 23 -24 -21 27 -25 31 -32 29 -12 0
28 23 -24 -21 27 -25 31 -32 -29 -12 0
28 23 -24 -21 27 -25 -31 32 29 -12 0
28 23 -24 -21 27 -25 -31 32 -29 -12 0
28 23 -24 -21 27 -25 -31 -32 29 -12 0
28 23 -24 -21 27 -25 -31 -32 -29 -12 0
28 23 -24 -21 -27 25 31 32 29 12 0
28 23 -24 -21 -27 25 31 32 -29 -12 0
28 23 -24 -21 -27 25 31 -32 29 -12 0
28 23 -24 -21 -27 25 31 -32 -29 -12 0
28 23 -24 -21 -27 25 -31 32 29 -12 0
28 23 -24 -21 -27 25 -31 32 -29 -12 0
28 23 -24 -21 -27 25 -31 -32 29 -12 0
28 23 -24 -21 -27 25 -31 -32 -29 -12 0
28 23 -24 -21 -27 -25 31 32 29 -12 0
28 23 -24 -21 -27 -25 31 32 -29 -12 0
28 23 -24 -21 -27 -25 31 -32 29 -12 0
28 23 -24 -21 -27 -25 31 -32 -29 -12 0
28 23 -24 -21 -27 -25 -31 32 29 -12 0
28 23 -24 -21 -27 -25 -31 32 -29 -12 0
28 23 -24 -21 -27 -25 -31 -32 29 -12 0
28 23 -24 -21 -27 -25 -31 -32 -29 -12 0
28 -23 24 21 27 25 31 32 29 -12 0
28 -23 24 21 27 25 31 32 -29 -12 0
28 -23 24 21 27 25 31 -32 29 -12 0
28 -23 24 21 27 25 31 -32 -29 12 0
28 -23 24 21 27 25 -31 32 29 -12 0
28 -23 24 21 27 25 -31 32 -29 12 0
28 -23 24 21 27 25 -31 -32 29 12 0
28 -23 24 21 27 25 -31 -32 -29 -12 0
28 -23 24 21 27 -25 31 32 29 -12 0
28 -23 24 21 27 -25 31 32 -29 12 0
28 -23 24 21 27 -25 31 -32 29 12 0
28 -23 24 21 27 -25 31 -32 -29 -12 0
28 -23 24 21 27 -25 -31 32 29 12 0
28 -23 24 21 27 -25 -31 32 -29 -12 0
28 -23 24 21 27 -25 -31 -32 29 -12 0
28 -23 24 21 27 -25 -31 -32 -29 -12 0
28 -23 24 21 -27 25 31 32 29 -12 0
28 -23 24 21 -27 25 31 32 -29 12 0
28 -23 24 21 -27 25 31 -32 29 12 0
28 -23 24 21 -27 25 31 -32 -29 -12 0
28 -23 24 21 -27 25 -31 32 29 12 0
28 -23 24 21 -27 25 -31 32 -29 -12 0
28 -23 24 21 -27 25 -31 -32 29 -12 0
28 -23 24 21 -27 25 -31 -32 -29 -12 0
28 -23 24 21 -27 -25 31 32 29 12 0
28 -23 24 21 -27 -25 31 32 -29 -12 0
28 -23 24 21 -27 -25 31 -32 29 -12 0
28 -23 24 21 -27 -25 31 -32 -29 -12 0
28 -23 24 21 -27 -25 -31 32 29 -12 0
28 -23 24 21 -27 -25 -31 32 -29 -12 0
28 -23 24 21 -27 -25 -31 -32 29 -12 0
28 -23 24 21 -27 -25 -31 -32 -29 -12 0
28 -23 24 -21 27 25 31 32 29 -12 0
28 -23 24 -21 27 25 31 32 -29 12 0
28 -23 24 -21 27 25 31 -32 29 12 0
28 -23 24 -21 27 25 31 -32 -29 -12 0
28 -23 24 -21 27 25 -31 32 29 12 0
28 -23 24 -21 27 25 -31 32 -29 -12 0
28 -23 24 -21 27 25 -31 -32 29 -12 0
28 -23 24 -21 27 25 -31 -32 -29 -12 0
28 -23 24 -21 27 -25 31 32 29 12 0
28 -23 24 -21 27 -25 31 32 -29 -12 0
28 -23 24 -21 27 -25 31 -32 29 -12 0
28 -23 24 -21 27 -25 31 -32 -29 -12 0
28 -23 24 -21 27 -25 -31 32 29 -12 0
28 -23 24 -21 27 -25 -31 32 -29 -12 0
28 -23 24 -21 27 -25 -31 -32 29 -12 0
28 -23 24 -21 27 -25 -31 -32 -29 -12 0
28 -23 24 -21 -27 25 31 32 29 12 0
28 -23 24 -21 -27 25 31 32 -29 -12 0
28 -23 24 -21 -27 25 31 -32 29 -12 0
28 -23 24 -21 -27 25 31 -32 -29 -12 0
28 -23 24 -21 -27 25 -31 32 29 -12 0
28 -23 24 -21 -27 25 -31 32 -29 -12 0
28 -23 24 -21 -27 25 -31 -32 29 -12 0
28 -23 24 -21 -27 25 -31 -32 -29 -12 0
28 -23 24 -21 -27 -25 31 32 29 -12 0
28 -23 24 -21 -27 -25 31 32 -29 -12 0
28 -23 24 -21 -27 -25 31 -32 29 -12 0
28 -23 24 -21 -27 -25 31 -32 -29 -12 0
28 -23 24 -21 -27 -25 -31 32 29 -12 0
28 -23 24 -21 -27 -25 -31 32 -29 -12 0
28 -23 24 -21 -27 -25 -31 -32 29 -12 0
28 -23 24 -21 -27 -25 -31 -32 -29 -12 0
28 -23 -24 21 27 25 31 32 29 -12 0
28 -23 -24 21 27 25 31 32 -29 12 0
28 -23 -24 21 27 25 31 -32 29 12 0
28 -23 -24 21 27 25 31 -32 -29 -12 0
28 -23 -24 21 27 25 -31 32 29 12 0
28 -23 -24 21 27 25 -31 32 -29 -12 0
28 -23 -24 21 27 25 -31 -32 29 -12 0
28 -23 -24 21 27 25 -31 -32 -29 -12 0
28 -23 -24 21 27 -25 31 32 29 12 0
28 -23 -24 21 27 -25 31 32 -29 -12 0
28 -23 -24 21 27 -25 31 -32 29 -12 0
28 -23 -24 21 27 -25 31 -32 -29 -12 0
28 -23 -24 21 27 -25 -31 32 29 -12 0
28 -23 -24 21 27 -25 -31 32 -29 -12 0
28 -23 -24 21 27 -25 -31 -32 29 -12 0
28 -23 -24 21 27 -25 -31 -32 -29 -12 0
28 -23 -24 21 -27 25 31 32 29 12 0
28 -23 -24 21 -27 25 31 32 -29 -12 0
28 -23 -24 21 -27 25 31 -32 29 -12 0
28 -23 -24 21 -27 25 31 -32 -29 -12 0
28 -23 -24 21 -27 25 -31 32 29 -12 0
28 -23 -24 21 -27 25 -31 32 -29 -12 0
28 -23 -24 21 -27 25 -31 -32 29 -12 0
28 -23 -24 21 -27 25 -31 -32 -29 -12 0
28 -23 -24 21 -27 -25 31 32 29 -12 0
28 -23 -24 21 -27 -25 31 32 -29 -12 0
28 -23 -24 21 -27 -25 31 -32 29 -12 0
28 -23 -24 21 -27 -25 31 -32 -29 -12 0
28 -23 -24 21 -27 -25 -31 32 29 -12 0
28 -23 -24 21 -27 -25 -31 32 -29 -12 0
28 -23 -24 21 -27 -25 -31 -32 29 -12 0
28 -23 -24 21 -27 -25 -31 -32 -29 -12 0
28 -23 -24 -21 27 25 31 32 29 12 0
28 -23 -24 -21 27 25 31 32 -29 -12 0
28 -23 -24 -21 27 25 31 -32 29 -12 0
28 -23 -24 -21 27 25 31 -32 -29 -12 0
28 -23 -24 -21 27 25 -31 32 29 -12 0
28 -23 -24 -21 27 25 -31 32 -29 -12 0
28 -23 -24 -21 27 25 -31 -32 29 -12 0
28 -23 -24 -21 27 25 -31 -32 -29 -12 0
28 -23 -24 -21 27 -25 31 32 29 -12 0
28 -23 -24 -21 27 -25 31 32 -29 -12 0
28 -23 -24 -21 27 -25 31 -32 29 -12 0
28 -23 -24 -21 27 -25 31 -32 -29 -12 0
28 -23 -24 -21 27 -25 -31 32 29 -12 0
28 -23 -24 -21 27 -25 -31 32 -29 -12 0
28 -23 -24 -21 27 -25 -31 -32 29 -12 0
28 -23 -24 -21 27 -25 -31 -32 -29 -12 0
28 -23 -24 -21 -27 25 31 32 29 -12 0
28 -23 -24 -21 -27 25 31 32 -29 -12 0
28 -23 -24 -21 -27 25 31 -32 29 -12 0
28 -23 -24 -21 -27 25 31 -32 -29 -12 0
28 -23 -24 -21 -27 25 -31 32 29 -12 0
28 -23 -24 -21 -27 25 -31 32 -29 -12 0
28 -23 -24 -21 -27 25 -31 -32 29 -12 0
28 -23 -24 -21 -27 25 -31 -32 -29 -12 0
28 -23 -24 -21 -27 -25 31 32 29 -12 0
28 -23 -24 -21 -27 -25 31 32 -29 -12 0
28 -23 -24 -21 -27 -25 31 -32 29 -12 0
28 -23 -24 -21 -27 -25 31 -32 -29 -12 0
28 -23 -24 -21 -27 -25 -31 32 29 -12 0
28 -23 -24 -21 -27 -25 -31 32 -29 -12 0
28 -23 -24 -21 -27 -25 -31 -32 29 -12 0
28 -23 -24 -21 -27 -25 -31 -32 -29 -12 0
-28 23 24 21 27 25 31 32 29 -12 0
-28 23 24 21 27 25 31 32 -29 -12 0
-28 23 24 21 27 25 31 -32 29 -12 0
-28 23 24 21 27 25 31 -32 -29 12 0
-28 23 24 21 27 25 -31 32 29 -12 0
-28 23 24 21 27 25 -31 32 -29 12 0
-28 23 24 21 27 25 -31 -32 29 12 0
-28 23 24 21 27 25 -31 -32 -29 12 0
-28 23 24 21 27 -25 31 32 29 -12 0
-28 23 24 21 27 -25 31 32 -29 12 0
-28 23 24 21 27 -25 31 -32 29 12 0
-28 23 24 21 27 -25 31 -32 -29 12 0
-28 23 24 21 27 -25 -31 32 29 12 0
-28 23 24 21 27 -25 -31 32 -29 12 0
-28 23 24 21 27 -25 -31 -32 29 12 0
-28 23 24 21 27 -25 -31 -32 -29 -12 0
-28 23 24 21 -27 25 31 32 29 -12 0
-28 23 24 21 -27 25 31 32 -29 12 0
-28 23 24 21 -27 25 31 -32 29 12 0
-28 23 24 21 -27 25 31 -32 -29 12 0
-28 23 24 21 -27 25 -31 32 29 12 0
-28 23 24 21 -27 25 -31 32 -29 12 0
-28 23 24 21 -27 25 -31 -32 29 12 0
-28 23 24 21 -27 25 -31 -32 -29 -12 0
-28 23 24 21 -27 -25 31 32 29 12 0
-28 23 24 21 -27 -25 31 32 -29 12 0
-28 23 24 21 -27 -25 31 -32 29 12 0
-28 23 24 21 -27 -25 31 -32 -29 -12 0
-28 23 24 21 -27 -25 -31 32 29 12 0
-28 23 24 21 -27 -25 -31 32 -29 -12 0
-28 23 24 21 -27 -25 -31 -32 29 -12 0
-28 23 24 21 -27 -25 -31 -32 -29 -12 0
-28 23 24 -21 27 25 31 32 29 -12 0
-28 23 24 -21 27 25 31 32 -29 12 0
-28 23 24 -21 27 25 31 -32 29 12 0
-28 23 24 -21 27 25 31 -32 -29 12 0
-28 23 24 -21 27 25 -31 32 29 12 0
-28 23 24 -21 27 25 -31 32 -29 12 0
-28 23 24 -21 27 25 -31 -32 29 12 0
-28 23 24 -21 27 25 -31 -32 -29 -12 0
-28 23 24 -21 27 -25 31 32 29 12 0
-28 23 24 -21 27 -25 31 32 -29 12 0
-28 23 24 -21 27 -25 31 -32 29 12 0
-28 23 24 -21 27 -25 31 -32 -29 -12 0
-28 23 24 -21 27 -25 -31 32 29 12 0
-28 23 24 -21 27 -25 -31 32 -29 -12 0
-28 23 24 -21 27 -25 -31 -32 29 -12 0
-28 23 24 -21 27 -25 -31 -32 -29 -12 0
-28 23 24 -21 -27 25 31 32 29 12 0
-28 23 24 -21 -27 25 31 32 -29 12 0
-28 23 24 -21 -27 25 31 -32 29 12 0
-28 23 24 -21 -27 25 31 -32 -29 -12 0
-28 23 24 -21 -27 25 -31 32 29 12 0
-28 23 24 -21 -27 25 -31 32 -29 -12 0
-28 23 24 -21 -27 25 -31 -32 29 -12 0
-28 23 24 -21 -27 25 -31 -32 -29 -12 0
-28 23 24 -21 -27 -25 31 32 29 12 0
-28 23 24 -21 -27 -25 31 32 -29 -12 0
-28 23 24 -21 -27 -25 31 -32 29 -12 0
-28 23 24 -21 -27 -25 31 -32 -29 -12 0
-28 23 24 -21 -27 -25 -31 32 29 -12 0
-28 23 24 -21 -27 -25 -31 32 -29 -12 0
-28 23 24 -21 -27 -25 -31 -32 29 -12 0
-28 23 24 -21 -27 -25 -31 -32 -29 -12 0
-28 23 -24 21 27 25 31 32 29 -12 0
-28 23 -24 21 27 25 31 32 -29 12 0
-28 23 -24 21 27 25 31 -32 29 12 0
-28 23 -24 21 27 25 31 -32 -29 12 0
-28 23 -24 21 27 25 -31 32 29 12 0
-28 23 -24 21 27 25 -31 32 -29 12 0
-28 23 -24 21 27 25 -31 -32 29 12 0
-28 23 -24 21 27 25 -31 -32 -29 -12 0
-28 23 -24 21 27 -25 31 32 29 12 0
-28 23 -24 21 27 -25 31 32 -29 12 0
-28 23 -24 21 27 -25 31 -32 29 12 0
-28 23 -24 21 27 -25 31 -32 -29 -12 0
-28 23 -24 21 27 -25 -31 32 29 12 0
-28 23 -24 21 27 -25 -31 32 -29 -12 0
-28 23 -24 21 27 -25 -31 -32 29 -12 0
-28 23 -24 21 27 -25 -31 -32 -29 -12 0
-28 23 -24 21 -27 25 31 32 29 12 0
-28 23 -24 21 -27 25 31 32 -29 12 0
-28 23 -24 21 -27 25 31 -32 29 12 0
-28 23 -24 21 -27 25 31 -32 -29 -12 0
-28 23 -24 21 -27 25 -31 32 29 12 0
-28 23 -24 21 -27 25 -31 32 -29 -12 0
-28 23 -24 21 -27 25 -31 -32 29 -12 0
-28 23 -24 21 -27 25 -31 -32 -29 -12 0
-28 23 -24 21 -27 -25 31 32 29 12 0
-28 23 -24 21 -27 -25 31 32 -29 -12 0
-28 23 -24 21 -27 -25 31 -32 29 -12 0
-28 23 -24 21 -27 -25 31 -32 -29 -12 0
-28 23 -24 21 -27 -25 -31 32 29 -12 0
-28 23 -24 21 -27 -25 -31 32 -29 -12 0
-28 23 -24 21 -27 -25 -31 -32 29 -12 0
-28 23 -24 21 -27 -25 -31 -32 -29 -12 0
-28 23 -24 -21 27 25 31 32 29 12 0
-28 23 -24 -21 27 25 31 32 -29 12 0
-28 23 -24 -21 27 25 31 -32 29 12 0
-28 23 -24 -21 27 25 31 -32 -29 -12 0
-28 23 -24 -21 27 25 -31 32 29 12 0
-28 23 -24 -21 27 25 -31 32 -29 -12 0
-28 23 -24 -21 27 25 -31 -32 29 -12 0
-28 23 -24 -21 27 25 -31 -32 -29 -12 0
-28 23 -24 -21 27 -25 31 32 29 12 0
-28 23 -24 -21 27 -25 31 32 -29 -12 0
-28 23 -24 -21 27 -25 31 -32 29 -12 0
-28 23 -24 -21 27 -25 31 -32 -29 -12 0
-28 23 -24 -21 27 -25 -31 32 29 -12 0
-28 23 -24 -21 27 -25 -31 32 -29 -12 0
-28 23 -24 -21 27 -25 -31 -32 29 -12 0
-28 23 -24 -21 27 -25 -31 -32 -29 -12 0
-28 23 -24 -21 -27 25 31 32 29 12 0
-28 23 -24 -21 -27 25 31 32 -29 -12 0
-28 23 -24 -21 -27 25 31 -32 29 -12 0
-28 23 -24 -21 -27 25 31 -32 -29 -12 0
-28 23 -24 -21 -27 25 -31 32 29 -12 0
-28 23 -24 -21 -27 25 -31 32 -29 -12 0
-28 23 -24 -21 -27 25 -31 -32 29 -12 0
-28 23 -24 -21 -27 25 -31 -32 -29 -12 0
-28 23 -24 -21 -27 -25 31 32 29 -12 0
-28 23 -24 -21 -27 -25 31 32 -29 -12 0
-28 23 -24 -21 -27 -25 31 -32 29 -12 0
-28 23 -24 -21 -27 -25 31 -32 -29 -12 0
-28 23 -24 -21 -27 -25 -31 32 29 -12 0
-28 23 -24 -21 -27 -25 -31 32 -29 -12 0
-28 23 -24 -21 -27 -25 -31 -32 29 -12 0
-28 23 -24 -21 -27 -25 -31 -32 -29 -12 0
-28 -23 24 21 27 25 31 32 29 -12 0
-28 -23 24 21 27 25 31 32 -29 12 0
-28 -23 24 21 27 25 31 -32 29 12 0
-28 -23 24 21 27 25 31 -32 -29 12 0
-28 -23 24 21 27 25 -31 32 29 12 0
-28 -23 24 21 27 25 -31 32 -29 12 0
-28 -23 24 21 27 25 -31 -32 29 12 0
-28 -23 24 21 27 25 -31 -32 -29 -12 0
-28 -23 24 21 27 -25 31 32 29 12 0
-28 -23 24 21 27 -25 31 32 -29 12 0
-28 -23 24 21 27 -25 31 -32 29 12 0
-28 -23 24 21 27 -25 31 -32 -29 -12 0
-28 -23 24 21 27 -25 -31 32 29 12 0
-28 -23 24 21 27 -25 -31 32 -29 -12 0
-28 -23 24 21 27 -25 -31 -32 29 -12 0
-28 -23 24 21 27 -25 -31 -32 -29 -12 0
-28 -23 24 21 -27 25 31 32 29 12 0
-28 -23 24 21 -27 25 31 32 -29 12 0
-28 -23 24 21 -27 25 31 -32 29 12 0
-28 -23 24 21 -27 25 31 -32 -29 -12 0
-28 -23 24 21 -27 25 -31 32 29 12 0
-28 -23 24 21 -27 25 -31 32 -29 -12 0
-28 -23 24 21 -27 25 -31 -32 29 -12 0
-28 -23 24 21 -27 25 -31 -32 -29 -12 0
-28 -23 24 21 -27 -25 31 32 29 12 0
-28 -23 24 21 -27 -25 31 32 -29 -12 0
-28 -23 24 21 -27 -25 31 -32 29 -12 0
-28 -23 24 21 -27 -25 31 -32 -29 -12 0
-28 -23 24 21 -27 -25 -31 32 29 -12 0
-28 -23 24 21 -27 -25 -31 32 -29 -12 0
-28 -23 24 21 -27 -25 -31 -32 29 -12 0
-28 -23 24 21 -27 -25 -31 -32 -29 -12 0
-28 -23 24 -21 27 25 31 32 29 12 0
-28 -23 24 -21 27 25 31 32 -29 12 0
-28 -23 24 -21 27 25 31 -32 29 12 0
-28 -23 24 -21 27 25 31 -32 -29 -12 0
-28 -23 24 -21 27 25 -31 32 29 12 0
-28 -23 24 -21 27 25 -31 32 -29 -12 0
-28 -23 24 -21 27 25 -31 -32 29 -12 0
-28 -23 24 -21 27 25 -31 -32 -29 -12 0
-28 -23 24 -21 27 -25 31 32 29 12 0
-28 -23 24 -21 27 -25 31 32 -29 -12 0
-28 -23 24 -21 27 -25 31 -32 29 -12 0
-28 -23 24 -21 27 -25 31 -32 -29 -12 0
-28 -23 24 -21 27 -25 -31 32 29 -12 0
-28 -23 24 -21 27 -25 -31 32 -29 -12 0
-28 -23 24 -21 27 -25 -31 -32 29 -12 0
-28 -23 24 -21 27 -25 -31 -32 -29 -12 0
-28 -23 24 -21 -27 25 31 32 29 12 0
-28 -23 24 -21 -27 25 31 32 -29 -12 0
-28 -23 24 -21 -27 25 31 -32 29 -12 0
-28 -23 24 -21 -27 25 31 -32 -29 -12 0
-28 -23 24 -21 -27 25 -31 32 29 -12 0
-28 -23 24 -21 -27 25 -31 32 -29 -12 0
-28 -23 24 -21 -27 25 -31 -32 29 -12 0
-28 -23 24 -21 -27 25 -31 -32 -29 -12 0
-28 -23 24 -21 -27 -25 31 32 29 -12 0
-28 -23 24 -21 -27 -25 31 32 -29 -12 0
-28 -23 24 -21 -27 -25 31 -32 29 -12 0
-28 -23 24 -21 -27 -25 31 -32 -29 -12 0
-28 -23 24 -21 -27 -25 -31 32 29 -12 0
-28 -23 24 -21 -27 -25 -31 32 -29 -12 0
-28 -23 24 -21 -27 -25 -31 -32 29 -12 0
-28 -23 24 -21 -27 -25 -31 -32 -29 -12 0
-28 -23 -24 21 27 25 31 32 29 12 0
-28 -23 -24 21 27 25 31 32 -29 12 0
-28 -23 -24 21 27 25 31 -32 29 12 0
-28 -23 -24 21 27 25 31 -32 -29 -12 0
-28 -23 -24 21 27 25 -31 32 29 12 0
-28 -23 -24 21 27 25 -31 32 -29 -12 0
-28 -23 -24 21 27 25 -31 -32 29 -12 0
-28 -23 -24 21 27 25 -31 -32 -29 -12 0
-28 -23 -24 21 27 -25 31 32 29 12 0
-28 -23 -24 21 27 -25 31 32 -29 -12 0
-28 -23 -24 21 27 -25 31 -32 29 -12 0
-28 -23 -24 21 27 -25 31 -32 -29 -12 0
-28 -23 -24 21 27 -25 -31 32 29 -12 0
-28 -23 -24 21 27 -25 -31 32 -29 -12 0
-28 -23 -24 21 27 -25 -31 -32 29 -12 0
-28 -23 -24 21 27 -25 -31 -32 -29 -12 0
-28 -23 -24 21 -27 25 31 32 29 12 0
-28 -23 -24 21 -27 25 31 32 -29 -12 0
-28 -23 -24 21 -27 25 31 -32 29 -12 0
-28 -23 -24 21 -27 25 31 -32 -29 -12 0
-28 -23 -24 21 -27 25 -31 32 29 -12 0
-28 -23 -24 21 -27 25 -31 32 -29 -12 0
-28 -23 -24 21 -27 25 -31 -32 29 -12 0
-28 -23 -24 21 -27 25 -31 -32 -29 -12 0
-28 -23 -24 21 -27 -25 31 32 29 -12 0
-28 -23 -24 21 -27 -25 31 32 -29 -12 0
-28 -23 -24 21 -27 -25 31 -32 29 -12 0
-28 -23 -24 21 -27 -25 31 -32 -29 -12 0
-28 -23 -24 21 -27 -25 -31 32 29 -12 0
-28 -23 -24 21 -27 -25 -31 32 -29 -12 0
-28 -23 -24 21 -27 -25 -31 -32 29 -12 0
-28 -23 -24 21 -27 -25 -31 -32 -29 -12 0
-28 -23 -24 -21 27 25 31 32 29 12 0
-28 -23 -24 -21 27 25 31 32 -29 -12 0
-28 -23 -24 -21 27 25 31 -32 29 -12 0
-28 -23 -24 -21 27 25 31 -32 -29 -12 0
-28 -23 -24 -21 27 25 -31 32 29 -12 0
-28 -23 -24 -21 27 25 -31 32 -29 -12 0
-28 -23 -24 -21 27 25 -31 -32 29 -12 0
-28 -23 -24 -21 27 25 -31 -32 -29 -12 0
-28 -23 -24 -21 27 -25 31 32 29 -12 0
-28 -23 -24 -21 27 -25 31 32 -29 -12 0
-28 -23 -24 -21 27 -25 31 -32 29 -12 0
-28 -23 -24 -21 27 -25 31 -32 -29 -12 0
-28 -23 -24 -21 27 -25 -31 32 29 -12 0
-28 -23 -24 -21 27 -25 -31 32 -29 -12 0
-28 -23 -24 -21 27 -25 -31 -32 29 -12 0
-28 -23 -24 -21 27 -25 -31 -32 -29 -12 0
-28 -23 -24 -21 -27 25 31 32 29 -12 0
-28 -23 -24 -21 -27 25 31 32 -29 -12 0
-28 -23 -24 -21 -27 25 31 -32 29 -12 0
-28 -23 -24 -21 -27 25 31 -32 -29 -12 0
-28 -23 -24 -21 -27 25 -31 32 29 -12 0
-28 -23 -24 -21 -27 25 -31 32 -29 -12 0
-28 -23 -24 -21 -27 25 -31 -32 29 -12 0
-28 -23 -24 -21 -27 25 -31 -32 -29 -12 0
-28 -23 -24 -21 -27 -25 31 32 29 -12 0
-28 -23 -24 -21 -27 -25 31 32 -29 -12 0
-28 -23 -24 -21 -27 -25 31 -32 29 -12 0
-28 -23 -24 -21 -27 -25 31 -32 -29 -12 0
-28 -23 -24 -21 -27 -25 -31 32 29 -12 0
-28 -23 -24 -21 -27 -25 -31 32 -29 -12 0
-28 -23 -24 -21 -27 -25 -31 -32 29 -12 0
-28 -23 -24 -21 -27 -25 -31 -32 -29 -12 0
29 28 25 26 32 30 20 17 18 -13 0
29 28 25 26 32 30 20 17 -18 -13 0
29 28 25 26 32 30 20 -17 18 -13 0
29 28 25 26 32 30 20 -17 -18 -13 0
29 28 25 26 32 30 -20 17 18 -13 0
29 28 25 26 32 30 -20 17 -18 -13 0
29 28 25 26 32 30 -20 -17 18 -13 0
29 28 25 26 32 30 -20 -17 -18 13 0
29 28 25 26 32 -30 20 17 18 -13 0
29 28 25 26 32 -30 20 17 -18 -13 0
29 28 25 26 32 -30 20 -17 18 -13 0
29 28 25 26 32 -30 20 -17 -18 13 0
29 28 25 26 32 -30 -20 17 18 -13 0
29 28 25 26 32 -30 -20 17 -18 13 0
29 28 25 26 32 -30 -20 -17 18 13 0
29 28 25 26 32 -30 -20 -17 -18 -13 0
29 28 25 26 -32 30 20 17 18 -13 0
29 28 25 26 -32 30 20 17 -18 -13 0
29 28 25 26 -32 30 20 -17 18 -13 0
29 28 25 26 -32 30 20 -17 -18 13 0
29 28 25 26 -32 30 -20 17 18 -13 0
29 28 25 26 -32 30 -20 17 -18 13 0
29 28 25 26 -32 30 -20 -17 18 13 0
29 28 25 26 -32 30 -20 -17 -18 -13 0
29 28 25 26 -32 -30 20 17 18 -13 0
29 28 25 26 -32 -30 20 17 -18 13 0
29 28 25 26 -32 -30 20 -17 18 13 0
29 28 25 26 -32 -30 20 -17 -18 -13 0
29 28 25 26 -32 -30 -20 17 18 13 0
29 28 25 26 -32 -30 -20 17 -18 -13 0
29 28 25 26 -32 -30 -20 -17 18 -13 0
29 28 25 26 -32 -30 -20 -17 -18 -13 0
29 28 25 -26 32 30 20 17 18 -13 0
29 28 25 -26 32 30 20 17 -18 -13 0
29 28 25 -26 32 30 20 -17 18 -13 0
29 28 25 -26 32 30 20 -17 -18 13 0
29 28 25 -26 32 30 -20 17 18 -13 0
29 28 25 -26 32 30 -20 17 -18 13 0
29 28 25 -26 32 30 -20 -17 18 13 0
29 28 25 -26 32 30 -20 -17 -18 -13 0
29 28 25 -26 32 -30 20 17 18 -13 0
29 28 25 -26 32 -30 20 17 -18 13 0
29 28 25 -26 32 -30 20 -17 18 13 0
29 28 25 -26 32 -30 20 -17 -18 -13 0
29 28 25 -26 32 -30 -20 17 18 13 0
29 28 25 -26 32 -30 -20 17 -18 -13 0
29 28 25 -26 32 -30 -20 -17 18 -13 0
29 28 25 -26 32 -30 -20 -17 -18 -13 0
29 28 25 -26 -32 30 20 17 18 -13 0
29 28 25 -26 -32 30 20 17 -18 13 0
29 28 25 -26 -32 30 20 -17 18 13 0
29 28 25 -26 -32 30 20 -17 -18 -13 0
29 28 25 -26 -32 30 -20 17 18 13 0
29 28 25 -26 -32 30 -20 17 -18 -13 0
29 28 25 -26 -32 30 -20 -17 18 -13 0
29 28 25 -26 -32 30 -20 -17 -18 -13 0
29 28 25 -26 -32 -30 20 17 18 13 0
29 28 25 -26 -32 -30 20 17 -18 -13 0
29 28 25 -26 -32 -30 20 -17 18 -13 0
29 28 25 -26 -32 -30 20 -17 -18 -13 0
29 28 25 -26 -32 -30 -20 17 18 -13 0
29 28 25 -26 -32 -30 -20 17 -18 -13 0
29 28 25 -26 -32 -30 -20 -17 18 -13 0
29 28 25 -26 -32 -30 -20 -17 -18 -13 0
29 28 -25 26 32 30 20 17 18 -13 0
29 28 -25 26 32 30 20 17 -18 -13 0
29 28 -25 26 32 30 20 -17 18 -13 0
29 28 -25 26 32 30 20 -17 -18 13 0
29 28 -25 26 32 30 -20 17 18 -13 0
29 28 -25 26 32 30 -20 17 -18 13 0
29 28 -25 26 32 30 -20 -17 18 13 0
29 28 -25 26 32 30 -20 -17 -18 -13 0
29 28 -25 26 32 -30 20 17 18 -13 0
29 28 -25 26 32 -30 20 17 -18 13 0
29 28 -25 26 32 -30 20 -17 18 13 0
29 28 -25 26 32 -30 20 -17 -18 -13 0
29 28 -25 26 32 -30 -20 17 18 13 0
29 28 -25 26 32 -30 -20 17 -18 -13 0
29 28 -25 26 32 -30 -20 -17 18 -13 0
29 28 -25 26 32 -30 -20 -17 -18 -13 0
29 28 -25 26 -32 30 20 17 18 -13 0
29 28 -25 26 -32 30 20 17 -18 13 0
29 28 -25 26 -32 30 20 -17 18 13 0
29 28 -25 26 -32 30 20 -17 -18 -13 0
29 28 -25 26 -32 30 -20 17 18 13 0
29 28 -25 26 -32 30 -20 17 -18 -13 0
29 28 -25 26 -32 30 -20 -17 18 -13 0
29 28 -25 26 -32 30 -20 -17 -18 -13 0
29 28 -25 26 -32 -30 20 17 18 13 0
29 28 -25 26 -32 -30 20 17 -18 -13 0
29 28 -25 26 -32 -30 20 -17 18 -13 0
29 28 -25 26 -32 -30 20 -17 -18 -13 0
29 28 -25 26 -32 -30 -20 17 18 -13 0
29 28 -25 26 -32 -30 -20 17 -18 -13 0
29 28 -25 26 -32 -30 -20 -17 18 -13 0
29 28 -25 26 -32 -30 -20 -17 -18 -13 0
29 28 -25 -26 32 30 20 17 18 -13 0
29 28 -25 -26 32 30 20 17 -18 13 0
29 28 -25 -26 32 30 20 -17 18 13 0
29 28 -25 -26 32 30 20 -17 -18 -13 0
29 28 -25 -26 32 30 -20 17 18 13 0
29 28 -25 -26 32 30 -20 17 -18 -13 0
29 28 -25 -26 32 30 -20 -17 18 -13 0
29 28 -25 -26 32 30 -20 -17 -18 -13 0
29 28 -25 -26 32 -30 20 17 18 13 0
29 28 -25 -26 32 -30 20 17 -18 -13 0
29 28 -25 -26 32 -30 20 -17 18 -13 0
29 28 -25 -26 32 -30 20 -17 -18 -13 0
29 28 -25 -26 32 -30 -20 17 18 -13 0
29 28 -25 -26 32 -30 -20 17 -18 -13 0
29 28 -25 -26 32 -30 -20 -17 18 -13 0
29 28 -25 -26 32 -30 -20 -17 -18 -13 0
29 28 -25 -26 -32 30 20 17 18 13 0
29 28 -25 -26 -32 30 20 17 -18 -13 0
29 28 -25 -26 -32 30 20 -17 18 -13 0
29 28 -25 -26 -32 30 20 -17 -18 -13 0
29 28 -25 -26 -32 30 -20 17 18 -13 0
29 28 -25 -26 -32 30 -20 17 -18 -13 0
29 28 -25 -26 -32 30 -20 -17 18 -13 0
29 28 -25 -26 -32 30 -20 -17 -18 -13 0
29 28 -25 -26 -32 -30 20 17 18 -13 0
29 28 -25 -26 -32 -30 20 17 -18 -13 0
29 28 -25 -26 -32 -30 20 -17 18 -13 0
29 28 -25 -26 -32 -30 20 -17 -18 -13 0
29 28 -25 -26 -32 -30 -20 17 18 -13 0
29 28 -25 -26 -32 -30 -20 17 -18 -13 0
29 28 -25 -26 -32 -30 -20 -17 18 -13 0
29 28 -25 -26 -32 -30 -20 -17 -18 -13 0
29 -28 25 26 32 30 20 17 18 -13 0
29 -28 25 26 32 30 20 17 -18 -13 0
29 -28 25 26 32 30 20 -17 18 -13 0
29 -28 25 26 32 30 20 -17 -18 13 0
29 -28 25 26 32 30 -20 17 18 -13 0
29 -28 25 26 32 30 -20 17 -18 13 0
29 -28 25 26 32 30 -20 -17 18 13 0
29 -28 25 26 32 30 -20 -17 -18 -13 0
29 -28 25 26 32 -30 20 17 18 -13 0
29 -28 25 26 32 -30 20 17 -18 13 0
29 -28 25 26 32 -30 20 -17 18 13 0
29 -28 25 26 32 -30 20 -17 -18 -13 0
29 -28 25 26 32 -30 -20 17 18 13 0
29 -28 25 26 32 -30 -20 17 -18 -13 0
29 -28 25 26 32 -30 -20 -17 18 -13 0
29 -28 25 26 32 -30 -20 -17 -18 -13 0
29 -28 25 26 -32 30 20 17 18 -13 0
29 -28 25 26 -32 30 20 17 -18 13 0
29 -28 25 26 -32 30 20 -17 18 13 0
29 -28 25 26 -32 30 20 -17 -18 -13 0
29 -28 25 26 -32 30 -20 17 18 13 0
29 -28 25 26 -32 30 -20 17 -18 -13 0
29 -28 25 26 -32 30 -20 -17 18 -13 0
29 -28 25 26 -32 30 -20 -17 -18 -13 0
29 -28 25 26 -32 -30 20 17 18 13 0
29 -28 25 26 -32 -30 20 17 -18 -13 0
29 -28 25 26 -32 -30 20 -17 18 -13 0
29 -28 25 26 -32 -30 20 -17 -18 -13 0
29 -28 25 26 -32 -30 -20 17 18 -13 0
29 -28 25 26 -32 -30 -20 17 -18 -13 0
29 -28 25 26 -32 -30 -20 -17 18 -13 0
29 -28 25 26 -32 -30 -20 -17 -18 -13 0
29 -28 25 -26 32 30 20 17 18 -13 0
29 -28 25 -26 32 30 20 17 -18 13 0
29 -28 25 -26 32 30 20 -17 18 13 0
29 -28 25 -26 32 30 20 -17 -18 -13 0
29 -28 25 -26 32 30 -20 17 18 13 0
29 -28 25 -26 32 30 -20 17 -18 -13 0
29 -28 25 -26 32 30 -20 -17 18 -13 0
29 -28 25 -26 32 30 -20 -17 -18 -13 0
29 -28 25 -26 32 -30 20 17 18 13 0
29 -28 25 -26 32 -30 20 17 -18 -13 0
29 -28 25 -26 32 -30 20 -17 18 -13 0
29 -28 25 -26 32 -30 20 -17 -18 -13 0
29 -28 25 -26 32 -30 -20 17 18 -13 0
29 -28 25 -26 32 -30 -20 17 -18 -13 0
29 -28 25 -26 32 -30 -20 -17 18 -13 0
29 -28 25 -26 32 -30 -20 -17 -18 -13 0
29 -28 25 -26 -32 30 20 17 18 13 0
29 -28 25 -26 -32 30 20 17 -18 -13 0
29 -28 25 -26 -32 30 20 -17 18 -13 0
29 -28 25 -26 -32 30 20 -17 -18 -13 0
29 -28 25 -26 -32 30 -20 17 18 -13 0
29 -28 25 -26 -32 30 -20 17 -18 -13 0
29 -28 25 -26 -32 30 -20 -17 18 -13 0
29 -28 25 -26 -32 30 -20 -17 -18 -13 0
29 -28 25 -26 -32 -30 20 17 18 -13 0
29 -28 25 -26 -32 -30 20 17 -18 -13 0
29 -28 25 -26 -32 -30 20 -17 18 -13 0
29 -28 25 -26 -32 -30 20 -17 -18 -13 0
29 -28 25 -26 -32 -30 -20 17 18 -13 0
29 -28 25 -26 -32 -30 -20 17 -18 -13 0
29 -28 25 -26 -32 -30 -20 -17 18 -13 0
29 -28 25 -26 -32 -30 -20 -17 -18 -13 0
29 -28 -25 26 32 30 20 17 18 -13 0
29 -28 -25 26 32 30 20 17 -18 13 0
29 -28 -25 26 32 30 20 -17 18 13 0
29 -28 -25 26 32 30 20 -17 -18 -13 0
29 -28 -25 26 32 30 -20 17 18 13 0
29 -28 -25 26 32 30 -20 17 -18 -13 0
29 -28 -25 26 32 30 -20 -17 18 -13 0
29 -28 -25 26 32 30 -20 -17 -18 -13 0
29 -28 -25 26 32 -30 20 17 18 13 0
29 -28 -25 26 32 -30 20 17 -18 -13 0
29 -28 -25 26 32 -30 20 -17 18 -13 0
29 -28 -25 26 32 -30 20 -17 -18 -13 0
29 -28 -25 26 32 -30 -20 17 18 -13 0
29 -28 -25 26 32 -30 -20 17 -18 -13 0
29 -28 -25 26 32 -30 -20 -17 18 -13 0
29 -28 -25 26 32 -30 -20 -17 -18 -13 0
29 -28 -25 26 -32 30 20 17 18 13 0
29 -28 -25 26 -32 30 20 17 -18 -13 0
29 -28 -25 26 -32 30 20 -17 18 -13 0
29 -28 -25 26 -32 30 20 -17 -18 -13 0
29 -28 -25 26 -32 30 -20 17 18 -13 0
29 -28 -25 26 -32 30 -20 17 -18 -13 0
29 -28 -25 26 -32 30 -20 -17 18 -13 0
29 -28 -25 26 -32 30 -20 -17 -18 -13 0
29 -28 -25 26 -32 -30 20 17 18 -13 0
29 -28 -25 26 -32 -30 20 17 -18 -13 0
29 -28 -25 26 -32 -30 20 -17 18 -13 0
29 -28 -25 26 -32 -30 20 -17 -18 -13 0
29 -28 -25 26 -32 -30 -20 17 18 -13 0
29 -28 -25 26 -32 -30 -20 17 -18 -13 0
29 -28 -25 26 -32 -30 -20 -17 18 -13 0
29 -28 -25 26 -32 -30 -20 -17 -18 -13 0
29 -28 -25 -26 32 30 20 17 18 13 0
29 -28 -25 -26 32 30 20 17 -18 -13 0
29 -28 -25 -26 32 30 20 -17 18 -13 0
29 -28 -25 -26 32 30 20 -17 -18 -13 0
29 -28 -25 -26 32 30 -20 17 18 -13 0
29 -28 -25 -26 32 30 -20 17 -18 -13 0
29 -28 -25 -26 32 30 -20 -17 18 -13 0
29 -28 -25 -26 32 30 -20 -17 -18 -13 0
29 -28 -25 -26 32 -30 20 17 18 -13 0
29 -28 -25 -26 32 -30 20 17 -18 -13 0
29 -28 -25 -26 32 -30 20 -17 18 -13 0
29 -28 -25 -26 32 -30 20 -17 -18 -13 0
29 -28 -25 -26 32 -30 -20 17 18 -13 0
29 -28 -25 -26 32 -30 -20 17 -18 -13 0
29 -28 -25 -26 32 -30 -20 -17 18 -13 0
29 -28 -25 -26 32 -30 -20 -17 -18 -13 0
29 -28 -25 -26 -32 30 20 17 18 -13 0
29 -28 -25 -26 -32 30 20 17 -18 -13 0
29 -28 -25 -26 -32 30 20 -17 18 -13 0
29 -28 -25 -26 -32 30 20 -17 -18 -13 0
29 -28 -25 -26 -32 30 -20 17 18 -13 0
29 -28 -25 -26 -32 30 -20 17 -18 -13 0
29 -28 -25 -26 -32 30 -20 -17 18 -13 0
29 -28 -25 -26 -32 30 -20 -17 -18 -13 0
29 -28 -25 -26 -32 -30 20 17 18 -13 0
29 -28 -25 -26 -32 -30 20 17 -18 -13 0
29 -28 -25 -26 -32 -30 20 -17 18 -13 0
29 -28 -25 -26 -32 -30 20 -17 -18 -13 0
29 -28 -25 -26 -32 -30 -20 17 18 -13 0
29 -28 -25 -26 -32 -30 -20 17 -18 -13 0
29 -28 -25 -26 -32 -30 -20 -17 18 -13 0
29 -28 -25 -26 -32 -30 -20 -17 -18 -13 0
-29 28 25 26 32 30 20 17 18 -13 0
-29 28 25 26 32 30 20 17 -18 -13 0
-29 28 25 26 32 30 20 -17 18 -13 0
-29 28 25 26 32 30 20 -17 -18 13 0
-29 28 25 26 32 30 -20 17 18 -13 0
-29 28 25 26 32 30 -20 17 -18 13 0
-29 28 25 26 32 30 -20 -17 18 13 0
-29 28 25 26 32 30 -20 -17 -18 13 0
-29 28 25 26 32 -30 20 17 18 -13 0
-29 28 25 26 32 -30 20 17 -18 13 0
-29 28 25 26 32 -30 20 -17 18 13 0
-29 28 25 26 32 -30 20 -17 -18 13 0
-29 28 25 26 32 -30 -20 17 18 13 0
-29 28 25 26 32 -30 -20 17 -18 13 0
-29 28 25 26 32 -30 -20 -17 18 13 0
-29 28 25 26 32 -30 -20 -17 -18 -13 0
-29 28 25 26 -32 30 20 17 18 -13 0
-29 28 25 26 -32 30 20 17 -18 13 0
-29 28 25 26 -32 30 20 -17 18 13 0
-29 28 25 26 -32 30 20 -17 -18 13 0
-29 28 25 26 -32 30 -20 17 18 13 0
-29 28 25 26 -32 30 -20 17 -18 13 0
-29 28 25 26 -32 30 -20 -17 18 13 0
-29 28 25 26 -32 30 -20 -17 -18 -13 0
-29 28 25 26 -32 -30 20 17 18 13 0
-29 28 25 26 -32 -30 20 17 -18 13 0
-29 28 25 26 -32 -30 20 -17 18 13 0
-29 28 25 26 -32 -30 20 -17 -18 -13 0
-29 28 25 26 -32 -30 -20 17 18 13 0
-29 28 25 26 -32 -30 -20 17 -18 -13 0
-29 28 25 26 -32 -30 -20 -17 18 -13 0
-29 28 25 26 -32 -30 -20 -17 -18 -13 0
-29 28 25 -26 32 30 20 17 18 -13 0
-29 28 25 -26 32 30 20 17 -18 13 0
-29 28 25 -26 32 30 20 -17 18 13 0
-29 28 25 -26 32 30 20 -17 -18 13 0
-29 28 25 -26 32 30 -20 17 18 13 0
-29 28 25 -26 32 30 -20 17 -18 13 0
-29 28 25 -26 32 30 -20 -17 18 13 0
-29 28 25 -26 32 30 -20 -17 -18 -13 0
-29 28 25 -26 32 -30 20 17 18 13 0
-29 28 25 -26 32 -30 20 17 -18 13 0
-29 28 25 -26 32 -30 20 -17 18 13 0
-29 28 25 -26 32 -30 20 -17 -18 -13 0
-29 28 25 -26 32 -30 -20 17 18 13 0
-29 28 25 -26 32 -30 -20 17 -18 -13 0
-29 28 25 -26 32 -30 -20 -17 18 -13 0
-29 28 25 -26 32 -30 -20 -17 -18 -13 0
-29 28 25 -26 -32 30 20 17 18 13 0
-29 28 25 -26 -32 30 20 17 -18 13 0
-29 28 25 -26 -32 30 20 -17 18 13 0
-29 28 25 -26 -32 30 20 -17 -18 -13 0
-29 28 25 -26 -32 30 -20 17 18 13 0
-29 28 25 -26 -32 30 -20 17 -18 -13 0
-29 28 25 -26 -32 30 -20 -17 18 -13 0
-29 28 25 -26 -32 30 -20 -17 -18 -13 0
-29 28 25 -26 -32 -30 20 17 18 13 0
-29 28 25 -26 -32 -30 20 17 -18 -13 0
-29 28 25 -26 -32 -30 20 -17 18 -13 0
-29 28 25 -26 -32 -30 20 -17 -18 -13 0
-29 28 25 -26 -32 -30 -20 17 18 -13 0
-29 28 25 -26 -32 -30 -20 17 -18 -13 0
-29 28 25 -26 -32 -30 -20 -17 18 -13 0
-29 28 25 -26 -32 -30 -20 -17 -18 -13 0
-29 28 -25 26 32 30 20 17 18 -13 0
-29 28 -25 26 32 30 20 17 -18 13 0
-29 28 -25 26 32 30 20 -17 18 13 0
-29 28 -25 26 32 30 20 -17 -18 13 0
-29 28 -25 26 32 30 -20 17 18 13 0
-29 28 -25 26 32 30 -20 17 -18 13 0
-29 28 -25 26 32 30 -20 -17 18 13 0
-29 28 -25 26 32 30 -20 -17 -18 -13 0
-29 28 -25 26 32 -30 20 17 18 13 0
-29 28 -25 26 32 -30 20 17 -18 13 0
-29 28 -25 26 32 -30 20 -17 18 13 0
-29 28 -25 26 32 -30 20 -17 -18 -13 0
-29 28 -25 26 32 -30 -20 17 18 13 0
-29 28 -25 26 32 -30 -20 17 -18 -13 0
-29 28 -25 26 32 -30 -20 -17 18 -13 0
-29 28 -25 26 32 -30 -20 -17 -18 -13 0
-29 28 -25 26 -32 30 20 17 18 13 0
-29 28 -25 26 -32 30 20 17 -18 13 0
-29 28 -25 26 -32 30 20 -17 18 13 0
-29 28 -25 26 -32 30 20 -17 -18 -13 0
-29 28 -25 26 -32 30 -20 17 18 13 0
-29 28 -25 26 -32 30 -20 17 -18 -13 0
-29 28 -25 26 -32 30 -20 -17 18 -13 0
-29 28 -25 26 -32 30 -20 -17 -18 -13 0
-29 28 -25 26 -32 -30 20 17 18 13 0
-29 28 -25 26 -32 -30 20 17 -18 -13 0
-29 28 -25 26 -32 -30 20 -17 18 -13 0
-29 28 -25 26 -32 -30 20 -17 -18 -13 0
-29 28 -25 26 -32 -30 -20 17 18 -13 0
-29 28 -25 26 -32 -30 -20 17 -18 -13 0
-29 28 -25 26 -32 -30 -20 -17 18 -13 0
-29 28 -25 26 -32 -30 -20 -17 -18 -13 0
-29 28 -25 -26 32 30 20 17 18 13 0
-29 28 -25 -26 32 30 20 17 -18 13 0
-29 28 -25 -26 32 30 20 -17 18 13 0
-29 28 -25 -26 32 30 20 -17 -18 -13 0
-29 28 -25 -26 32 30 -20 17 18 13 0
-29 28 -25 -26 32 30 -20 17 -18 -13 0
-29 28 -25 -26 32 30 -20 -17 18 -13 0
-29 28 -25 -26 32 30 -20 -17 -18 -13 0
-29 28 -25 -26 32 -30 20 17 18 13 0
-29 28 -25 -26 32 -30 20 17 -18 -13 0
-29 28 -25 -26 32 -30 20 -17 18 -13 0
-29 28 -25 -26 32 -30 20 -17 -18 -13 0
-29 28 -25 -26 32 -30 -20 17 18 -13 0
-29 28 -25 -26 32 -30 -20 17 -18 -13 0
-29 28 -25 -26 32 -30 -20 -17 18 -13 0
-29 28 -25 -26 32 -30 -20 -17 -18 -13 0
-29 28 -25 -26 -32 30 20 17 18 13 0
-29 28 -25 -26 -32 30 20 17 -18 -13 0
-29 28 -25 -26 -32 30 20 -17 18 -13 0
-29 28 -25 -26 -32 30 20 -17 -18 -13 0
-29 28 -25 -26 -32 30 -20 17 18 -13 0
-29 28 -25 -26 -32 30 -20 17 -18 -13 0
-29 28 -25 -26 -32 30 -20 -17 18 -13 0
-29 28 -25 -26 -32 30 -20 -17 -18 -13 0
-29 28 -25 -26 -32 -30 20 17 18 -13 0
-29 28 -25 -26 -32 -30 20 17 -18 -13 0
-29 28 -25 -26 -32 -30 20 -17 18 -13 0
-29 28 -25 -26 -32 -30 20 -17 -18 -13 0
-29 28 -25 -26 -32 -30 -20 17 18 -13 0
-29 28 -25 -26 -32 -30 -20 17 -18 -13 0
-29 28 -25 -26 -32 -30 -20 -17 18 -13 0
-29 28 -25 -26 -32 -30 -20 -17 -18 -13 0
-29 -28 25 26 32 30 20 17 18 -13 0
-29 -28 25 26 32 30 20 17 -18 13 0
-29 -28 25 26 32 30 20 -17 18 13 0
-29 -28 25 26 32 30 20 -17 -18 13 0
-29 -28 25 26 32 30 -20 17 18 13 0
-29 -28 25 26 32 30 -20 17 -18 13 0
-29 -28 25 26 32 30 -20 -17 18 13 0
-29 -28 25 26 32 30 -20 -17 -18 -13 0
-29 -28 25 26 32 -30 20 17 18 13 0
-29 -28 25 26 32 -30 20 17 -18 13 0
-29 -28 25 26 32 -30 20 -17 18 13 0
-29 -28 25 26 32 -30 20 -17 -18 -13 0
-29 -28 25 26 32 -30 -20 17 18 13 0
-29 -28 25 26 32 -30 -20 17 -18 -13 0
-29 -28 25 26 32 -30 -20 -17 18 -13 0
-29 -28 25 26 32 -30 -20 -17 -18 -13 0
-29 -28 25 26 -32 30 20 17 18 13 0
-29 -28 25 26 -32 30 20 17 -18 13 0
-29 -28 25 26 -32 30 20 -17 18 13 0
-29 -28 25 26 -32 30 20 -17 -18 -13 0
-29 -28 25 26 -32 30 -20 17 18 13 0
-29 -28 25 26 -32 30 -20 17 -18 -13 0
-29 -28 25 26 -32 30 -20 -17 18 -13 0
-29 -28 25 26 -32 30 -20 -17 -18 -13 0
-29 -28 25 26 -32 -30 20 17 18 13 0
-29 -28 25 26 -32 -30 20 17 -18 -13 0
-29 -28 25 26 -32 -30 20 -17 18 -13 0
-29 -28 25 26 -32 -30 20 -17 -18 -13 0
-29 -28 25 26 -32 -30 -20 17 18 -13 0
-29 -28 25 26 -32 -30 -20 17 -18 -13 0
-29 -28 25 26 -32 -30 -20 -17 18 -13 0
-29 -28 25 26 -32 -30 -20 -17 -18 -13 0
-29 -28 25 -26 32 30 20 17 18 13 0
-29 -28 25 -26 32 30 20 17 -18 13 0
-29 -28 25 -26 32 30 20 -17 18 13 0
-29 -28 25 -26 32 30 20 -17 -18 -13 0
-29 -28 25 -26 32 30 -20 17 18 13 0
-29 -28 25 -26 32 30 -20 17 -18 -13 0
-29 -28 25 -26 32 30 -20 -17 18 -13 0
-29 -28 25 -26 32 30 -20 -17 -18 -13 0
-29 -28 25 -26 32 -30 20 17 18 13 0
-29 -28 25 -26 32 -30 20 17 -18 -13 0
-29 -28 25 -26 32 -30 20 -17 18 -13 0
-29 -28 25 -26 32 -30 20 -17 -18 -13 0
-29 -28 25 -26 32 -30 -20 17 18 -13 0
-29 -28 25 -26 32 -30 -20 17 -18 -13 0
-29 -28 25 -26 32 -30 -20 -17 18 -13 0
-29 -28 25 -26 32 -30 -20 -17 -18 -13 0
-29 -28 25 -26 -32 30 20 17 18 13 0
-29 -28 25 -26 -32 30 20 17 -18 -13 0
-29 -28 25 -26 -32 30 20 -17 18 -13 0
-29 -28 25 -26 -32 30 20 -17 -18 -13 0
-29 -28 25 -26 -32 30 -20 17 18 -13 0
-29 -28 25 -26 -32 30 -20 17 -18 -13 0
-29 -28 25 -26 -32 30 -20 -17 18 -13 0
-29 -28 25 -26 -32 30 -20 -17 -18 -13 0
-29 -28 25 -26 -32 -30 20 17 18 -13 0
-29 -28 25 -26 -32 -30 20 17 -18 -13 0
-29 -28 25 -26 -32 -30 20 -17 18 -13 0
-29 -28 25 -26 -32 -30 20 -17 -18 -13 0
-29 -28 25 -26 -32 -30 -20 17 18 -13 0
-29 -28 25 -26 -32 -30 -20 17 -18 -13 0
-29 -28 25 -26 -32 -30 -20 -17 18 -13 0
-29 -28 25 -26 -32 -30 -20 -17 -18 -13 0
-29 -28 -25 26 32 30 20 17 18 13 0
-29 -28 -25 26 32 30 20 17 -18 13 0
-29 -28 -25 26 32 30 20 -17 18 13 0
-29 -28 -25 26 32 30 20 -17 -18 -13 0
-29 -28 -25 26 32 30 -20 17 18 13 0
-29 -28 -25 26 32 30 -20 17 -18 -13 0
-29 -28 -25 26 32 30 -20 -17 18 -13 0
-29 -28 -25 26 32 30 -20 -17 -18 -13 0
-29 -28 -25 26 32 -30 20 17 18 13 0
-29 -28 -25 26 32 -30 20 17 -18 -13 0
-29 -28 -25 26 32 -30 20 -17 18 -13 0
-29 -28 -25 26 32 -30 20 -17 -18 -13 0
-29 -28 -25 26 32 -30 -20 17 18 -13 0
-29 -28 -25 26 32 -30 -20 17 -18 -13 0
-29 -28 -25 26 32 -30 -20 -17 18 -13 0
-29 -28 -25 26 32 -30 -20 -17 -18 -13 0
-29 -28 -25 26 -32 30 20 17 18 13 0
-29 -28 -25 26 -32 30 20 17 -18 -13 0
-29 -28 -25 26 -32 30 20 -17 18 -13 0
-29 -28 -25 26 -32 30 20 -17 -18 -13 0
-29 -28 -25 26 -32 30 -20 17 18 -13 0
-29 -28 -25 26 -32 30 -20 17 -18 -13 0
-29 -28 -25 26 -32 30 -20 -17 18 -13 0
-29 -28 -25 26 -32 30 -20 -17 -18 -13 0
-29 -28 -25 26 -32 -30 20 17 18 -13 0
-29 -28 -25 26 -32 -30 20 17 -18 -13 0
-29 -28 -25 26 -32 -30 20 -17 18 -13 0
-29 -28 -25 26 -32 -30 20 -17 -18 -13 0
-29 -28 -25 26 -32 -30 -20 17 18 -13 0
-29 -28 -25 26 -32 -30 -20 17 -18 -13 0
-29 -28 -25 26 -32 -30 -20 -17 18 -13 0
-29 -28 -25 26 -32 -30 -20 -17 -18 -13 0
-29 -28 -25 -26 32 30 20 17 18 13 0
-29 -28 -25 -26 32 30 20 17 -18 -13 0
-29 -28 -25 -26 32 30 20 -17 18 -13 0
-29 -28 -25 -26 32 30 20 -17 -18 -13 0
-29 -28 -25 -26 32 30 -20 17 18 -13 0
-29 -28 -25 -26 32 30 -20 17 -18 -13 0
-29 -28 -25 -26 32 30 -20 -17 18 -13 0
-29 -28 -25 -26 32 30 -20 -17 -18 -13 0
-29 -28 -25 -26 32 -30 20 17 18 -13 0
-29 -28 -25 -26 32 -30 20 17 -18 -13 0
-29 -28 -25 -26 32 -30 20 -17 18 -13 0
-29 -28 -25 -26 32 -30 20 -17 -18 -13 0
-29 -28 -25 -26 32 -30 -20 17 18 -13 0
-29 -28 -25 -26 32 -30 -20 17 -18 -13 0
-29 -28 -25 -26 32 -30 -20 -17 18 -13 0
-29 -28 -25 -26 32 -30 -20 -17 -18 -13 0
-29 -28 -25 -26 -32 30 20 17 18 -13 0
-29 -28 -25 -26 -32 30 20 17 -18 -13 0
-29 -28 -25 -26 -32 30 20 -17 18 -13 0
-29 -28 -25 -26 -32 30 20 -17 -18 -13 0
-29 -28 -25 -26 -32 30 -20 17 18 -13 0
-29 -28 -25 -26 -32 30 -20 17 -18 -13 0
-29 -28 -25 -26 -32 30 -20 -17 18 -13 0
-29 -28 -25 -26 -32 30 -20 -17 -18 -13 0
-29 -28 -25 -26 -32 -30 20 17 18 -13 0
-29 -28 -25 -26 -32 -30 20 17 -18 -13 0
-29 -28 -25 -26 -32 -30 20 -17 18 -13 0
-29 -28 -25 -26 -32 -30 20 -17 -18 -13 0
-29 -28 -25 -26 -32 -30 -20 17 18 -13 0
-29 -28 -25 -26 -32 -30 -20 17 -18 -13 0
-29 -28 -25 -26 -32 -30 -20 -17 18 -13 0
-29 -28 -25 -26 -32 -30 -20 -17 -18 -13 0
30 25 26 27 29 31 17 18 19 -14 0
30 25 26 27 29 31 17 18 -19 -14 0
30 25 26 27 29 31 17 -18 19 -14 0
30 25 26 27 29 31 17 -18 -19 -14 0
30 25 26 27 29 31 -17 18 19 -14 0
30 25 26 27 29 31 -17 18 -19 -14 0
30 25 26 27 29 31 -17 -18 19 -14 0
30 25 26 27 29 31 -17 -18 -19 14 0
30 25 26 27 29 -31 17 18 19 -14 0
30 25 26 27 29 -31 17 18 -19 -14 0
30 25 26 27 29 -31 17 -18 19 -14 0
30 25 26 27 29 -31 17 -18 -19 14 0
30 25 26 27 29 -31 -17 18 19 -14 0
30 25 26 27 29 -31 -17 18 -19 14 0
30 25 26 27 29 -31 -17 -18 19 14 0
30 25 26 27 29 -31 -17 -18 -19 -14 0
30 25 26 27 -29 31 17 18 19 -14 0
30 25 26 27 -29 31 17 18 -19 -14 0
30 25 26 27 -29 31 17 -18 19 -14 0
30 25 26 27 -29 31 17 -18 -19 14 0
30 25 26 27 -29 31 -17 18 19 -14 0
30 25 26 27 -29 31 -17 18 -19 14 0
30 25 26 27 -29 31 -17 -18 19 14 0
30 25 26 27 -29 31 -17 -18 -19 -14 0
30 25 26 27 -29 -31 17 18 19 -14 0
30 25 26 27 -29 -31 17 18 -19 14 0
30 25 26 27 -29 -31 17 -18 19 14 0
30 25 26 27 -29 -31 17 -18 -19 -14 0
30 25 26 27 -29 -31 -17 18 19 14 0
30 25 26 27 -29 -31 -17 18 -19 -14 0
30 25 26 27 -29 -31 -17 -18 19 -14 0
30 25 26 27 -29 -31 -17 -18 -19 -14 0
30 25 26 -27 29 31 17 18 19 -14 0
30 25 26 -27 29 31 17 18 -19 -14 0
30 25 26 -27 29 31 17 -18 19 -14 0
30 25 26 -27 29 31 17 -18 -19 14 0
30 25 26 -27 29 31 -17 18 19 -14 0
30 25 26 -27 29 31 -17 18 -19 14 0
30 25 26 -27 29 31 -17 -18 19 14 0
30 25 26 -27 29 31 -17 -18 -19 -14 0
30 25 26 -27 29 -31 17 18 19 -14 0
30 25 26 -27 29 -31 17 18 -19 14 0
30 25 26 -27 29 -31 17 -18 19 14 0
30 25 26 -27 29 -31 17 -18 -19 -14 0
30 25 26 -27 29 -31 -17 18 19 14 0
30 25 26 -27 29 -31 -17 18 -19 -14 0
30 25 26 -27 29 -31 -17 -18 19 -14 0
30 25 26 -27 29 -31 -17 -18 -19 -14 0
30 25 26 -27 -29 31 17 18 19 -14 0
30 25 26 -27 -29 31 17 18 -19 14 0
30 25 26 -27 -29 31 17 -18 19 14 0
30 25 26 -27 -29 31 17 -18 -19 -14 0
30 25 26 -27 -29 31 -17 18 19 14 0
30 25 26 -27 -29 31 -17 18 -19 -14 0
30 25 26 -27 -29 31 -17 -18 19 -14 0
30 25 26 -27 -29 31 -17 -18 -19 -14 0
30 25 26 -27 -29 -31 17 18 19 14 0
30 25 26 -27 -29 -31 17 18 -19 -14 0
30 25 26 -27 -29 -31 17 -18 19 -14 0
30 25 26 -27 -29 -31 17 -18 -19 -14 0
30 25 26 -27 -29 -31 -17 18 19 -14 0
30 25 26 -27 -29 -31 -17 18 -19 -14 0
30 25 26 -27 -29 -31 -17 -18 19 -14 0
30 25 26 -27 -29 -31 -17 -18 -19 -14 0
30 25 -26 27 29 31 17 18 19 -14 0
30 25 -26 27 29 31 17 18 -19 -14 0
30 25 -26 27 29 31 17 -18 19 -14 0
30 25 -26 27 29 31 17 -18 -19 14 0
30 25 -26 27 29 31 -17 18 19 -14 0
30 25 -26 27 29 31 -17 18 -19 14 0
30 25 -26 27 29 31 -17 -18 19 14 0
30 25 -26 27 29 31 -17 -18 -19 -14 0
30 25 -26 27 29 -31 17 18 19 -14 0
30 25 -26 27 29 -31 17 18 -19 14 0
30 25 -26 27 29 -31 17 -18 19 14 0
30 25 -26 27 29 -31 17 -18 -19 -14 0
30 25 -26 27 29 -31 -17 18 19 14 0
30 25 -26 27 29 -31 -17 18 -19 -14 0
30 25 -26 27 29 -31 -17 -18 19 -14 0
30 25 -26 27 29 -31 -17 -18 -19 -14 0
30 25 -26 27 -29 31 17 18 19 -14 0
30 25 -26 27 -29 31 17 18 -19 14 0
30 25 -26 27 -29 31 17 -18 19 14 0
30 25 -26 27 -29 31 17 -18 -19 -14 0
30 25 -26 27 -29 31 -17 18 19 14 0
30 25 -26 27 -29 31 -17 18 -19 -14 0
30 25 -26 27 -29 31 -17 -18 19 -14 0
30 25 -26 27 -29 31 -17 -18 -19 -14 0
30 25 -26 27 -29 -31 17 18 19 14 0
30 25 -26 27 -29 -31 17 18 -19 -14 0
30 25 -26 27 -29 -31 17 -18 19 -14 0
30 25 -26 27 -29 -31 17 -18 -19 -14 0
30 25 -26 27 -29 -31 -17 18 19 -14 0
30 25 -26 27 -29 -31 -17 18 -19 -14 0
30 25 -26 27 -29 -31 -17 -18 19 -14 0
30 25 -26 27 -29 -31 -17 -18 -19 -14 0
30 25 -26 -27 29 31 17 18 19 -14 0
30 25 -26 -27 29 31 17 18 -19 14 0
30 25 -26 -27 29 31 17 -18 19 14 0
30 25 -26 -27 29 31 17 -18 -19 -14 0
30 25 -26 -27 29 31 -17 18 19 14 0
30 25 -26 -27 29 31 -17 18 -19 -14 0
30 25 -26 -27 29 31 -17 -18 19 -14 0
30 25 -26 -27 29 31 -17 -18 -19 -14 0
30 25 -26 -27 29 -31 17 18 19 14 0
30 25 -26 -27 29 -31 17 18 -19 -14 0
30 25 -26 -27 29 -31 17 -18 19 -14 0
30 25 -26 -27 29 -31 17 -18 -19 -14 0
30 25 -26 -27 29 -31 -17 18 19 -14 0
30 25 -26 -27 29 -31 -17 18 -19 -14 0
30 25 -26 -27 29 -31 -17 -18 19 -14 0
30 25 -26 -27 29 -31 -17 -18 -19 -14 0
30 25 -26 -27 -29 31 17 18 19 14 0
30 25 -26 -27 -29 31 17 18 -19 -14 0
30 25 -26 -27 -29 31 17 -18 19 -14 0
30 25 -26 -27 -29 31 17 -18 -19 -14 0
30 25 -26 -27 -29 31 -17 18 19 -14 0
30 25 -26 -27 -29 31 -17 18 -19 -14 0
30 25 -26 -27 -29 31 -17 -18 19 -14 0
30 25 -26 -27 -29 31 -17 -18 -19 -14 0
30 25 -26 -27 -29 -31 17 18 19 -14 0
30 25 -26 -27 -29 -31 17 18 -19 -14 0
30 25 -26 -27 -29 -31 17 -18 19 -14 0
30 25 -26 -27 -29 -31 17 -18 -19 -14 0
30 25 -26 -27 -29 -31 -17 18 19 -14 0
30 25 -26 -27 -29 -31 -17 18 -19 -14 0
30 25 -26 -27 -29 -31 -17 -18 19 -14 0
30 25 -26 -27 -29 -31 -17 -18 -19 -14 0
30 -25 26 27 29 31 17 18 19 -14 0
30 -25 26 27 29 31 17 18 -19 -14 0
30 -25 26 27 29 31 17 -18 19 -14 0
30 -25 26 27 29 31 17 -18 -19 14 0
30 -25 26 27 29 31 -17 18 19 -14 0
30 -25 26 27 29 31 -17 18 -19 14 0
30 -25 26 27 29 31 -17 -18 19 14 0
30 -25 26 27 29 31 -17 -18 -19 -14 0
30 -25 26 27 29 -31 17 18 19 -14 0
30 -25 26 27 29 -31 17 18 -19 14 0
30 -25 26 27 29 -31 17 -18 19 14 0
30 -25 26 27 29 -31 17 -18 -19 -14 0
30 -25 26 27 29 -31 -17 18 19 14 0
30 -25 26 27 29 -31 -17 18 -19 -14 0
30 -25 26 27 29 -31 -17 -18 19 -14 0
30 -25 26 27 29 -31 -17 -18 -19 -14 0
30 -25 26 27 -29 31 17 18 19 -14 0
30 -25 26 27 -29 31 17 18 -19 14 0
30 -25 26 27 -29 31 17 -18 19 14 0
30 -25 26 27 -29 31 17 -18 -19 -14 0
30 -25 26 27 -29 31 -17 18 19 14 0
30 -25 26 27 -29 31 -17 18 -19 -14 0
30 -25 26 27 -29 31 -17 -18 19 -14 0
30 -25 26 27 -29 31 -17 -18 -19 -14 0
30 -25 26 27 -29 -31 17 18 19 14 0
30 -25 26 27 -29 -31 17 18 -19 -14 0
30 -25 26 27 -29 -31 17 -18 19 -14 0
30 -25 26 27 -29 -31 17 -18 -19 -14 0
30 -25 26 27 -29 -31 -17 18 19 -14 0
30 -25 26 27 -29 -31 -17 18 -19 -14 0
30 -25 26 27 -29 -31 -17 -18 19 -14 0
30 -25 26 27 -29 -31 -17 -18 -19 -14 0
30 -25 26 -27 29 31 17 18 19 -14 0
30 -25 26 -27 29 31 17 18 -19 14 0
30 -25 26 -27 29 31 17 -18 19 14 0
30 -25 26 -27 29 31 17 -18 -19 -14 0
30 -25 26 -27 29 31 -17 18 19 14 0
30 -25 26 -27 29 31 -17 18 -19 -14 0
30 -25 26 -27 29 31 -17 -18 19 -14 0
30 -25 26 -27 29 31 -17 -18 -19 -14 0
30 -25 26 -27 29 -31 17 18 19 14 0
30 -25 26 -27 29 -31 17 18 -19 -14 0
30 -25 26 -27 29 -31 17 -18 19 -14 0
30 -25 26 -27 29 -31 17 -18 -19 -14 0
30 -25 26 -27 29 -31 -17 18 19 -14 0
30 -25 26 -27 29 -31 -17 18 -19 -14 0
30 -25 26 -27 29 -31 -17 -18 19 -14 0
30 -25 26 -27 29 -31 -17 -18 -19 -14 0
30 -25 26 -27 -29 31 17 18 19 14 0
30 -25 26 -27 -29 31 17 18 -19 -14 0
30 -25 26 -27 -29 31 17 -18 19 -14 0
30 -25 26 -27 -29 31 17 -18 -19 -14 0
30 -25 26 -27 -29 31 -17 18 19 -14 0
30 -25 26 -27 -29 31 -17 18 -19 -14 0
30 -25 26 -27 -29 31 -17 -18 19 -14 0
30 -25 26 -27 -29 31 -17 -18 -19 -14 0
30 -25 26 -27 -29 -31 17 18 19 -14 0
30 -25 26 -27 -29 -31 17 18 -19 -14 0
30 -25 26 -27 -29 -31 17 -18 19 -14 0
30 -25 26 -27 -29 -31 17 -18 -19 -14 0
30 -25 26 -27 -29 -31 -17 18 19 -14 0
30 -25 26 -27 -29 -31 -17 18 -19 -14 0
30 -25 26 -27 -29 -31 -17 -18 19 -14 0
30 -25 26 -27 -29 -31 -17 -18 -19 -14 0
30 -25 -26 27 29 31 17 18 19 -14 0
30 -25 -26 27 29 31 17 18 -19 14 0
30 -25 -26 27 29 31 17 -18 19 14 0
30 -25 -26 27 29 31 17 -18 -19 -14 0
30 -25 -26 27 29 31 -17 18 19 14 0
30 -25 -26 27 29 31 -17 18 -19 -14 0
30 -25 -26 27 29 31 -17 -18 19 -14 0
30 -25 -26 27 29 31 -17 -18 -19 -14 0
30 -25 -26 27 29 -31 17 18 19 14 0
30 -25 -26 27 29 -31 17 18 -19 -14 0
30 -25 -26 27 29 -31 17 -18 19 -14 0
30 -25 -26 27 29 -31 17 -18 -19 -14 0
30 -25 -26 27 29 -31 -17 18 19 -14 0
30 -25 -26 27 29 -31 -17 18 -19 -14 0
30 -25 -26 27 29 -31 -17 -18 19 -14 0
30 -25 -26 27 29 -31 -17 -18 -19 -14 0
30 -25 -26 27 -29 31 17 18 19 14 0
30 -25 -26 27 -29 31 17 18 -19 -14 0
30 -25 -26 27 -29 31 17 -18 19 -14 0
30 -25 -26 27 -29 31 17 -18 -19 -14 0
30 -25 -26 27 -29 31 -17 18 19 -14 0
30 -25 -26 27 -29 31 -17 18 -19 -14 0
30 -25 -26 27 -29 31 -17 -18 19 -14 0
30 -25 -26 27 -29 31 -17 -18 -19 -14 0
30 -25 -26 27 -29 -31 17 18 19 -14 0
30 -25 -26 27 -29 -31 17 18 -19 -14 0
30 -25 -26 27 -29 -31 17 -18 19 -14 0
30 -25 -26 27 -29 -31 17 -18 -19 -14 0
30 -25 -26 27 -29 -31 -17 18 19 -14 0
30 -25 -26 27 -29 -31 -17 18 -19 -14 0
30 -25 -26 27 -29 -31 -17 -18 19 -14 0
30 -25 -26 27 -29 -31 -17 -18 -19 -14 0
30 -25 -26 -27 29 31 17 18 19 14 0
30 -25 -26 -27 29 31 17 18 -19 -14 0
30 -25 -26 -27 29 31 17 -18 19 -14 0
30 -25 -26 -27 29 31 17 -18 -19 -14 0
30 -25 -26 -27 29 31 -17 18 19 -14 0
30 -25 -26 -27 29 31 -17 18 -19 -14 0
30 -25 -26 -27 29 31 -17 -18 19 -14 0
30 -25 -26 -27 29 31 -17 -18 -19 -14 0
30 -25 -26 -27 29 -31 17 18 19 -14 0
30 -25 -26 -27 29 -31 17 18 -19 -14 0
30 -25 -26 -27 29 -31 17 -18 19 -14 0
30 -25 -26 -27 29 -31 17 -18 -19 -14 0
30 -25 -26 -27 29 -31 -17 18 19 -14 0
30 -25 -26 -27 29 -31 -17 18 -19 -14 0
30 -25 -26 -27 29 -31 -17 -18 19 -14 0
30 -25 -26 -27 29 -31 -17 -18 -19 -14 0
30 -25 -26 -27 -29 31 17 18 19 -14 0
30 -25 -26 -27 -29 31 17 18 -19 -14 0
30 -25 -26 -27 -29 31 17 -18 19 -14 0
30 -25 -26 -27 -29 31 17 -18 -19 -14 0
30 -25 -26 -27 -29 31 -17 18 19 -14 0
30 -25 -26 -27 -29 31 -17 18 -19 -14 0
30 -25 -26 -27 -29 31 -17 -18 19 -14 0
30 -25 -26 -27 -29 31 -17 -18 -19 -14 0
30 -25 -26 -27 -29 -31 17 18 19 -14 0
30 -25 -26 -27 -29 -31 17 18 -19 -14 0
30 -25 -26 -27 -29 -31 17 -18 19 -14 0
30 -25 -26 -27 -29 -31 17 -18 -19 -14 0
30 -25 -26 -27 -29 -31 -17 18 19 -14 0
30 -25 -26 -27 -29 -31 -17 18 -19 -14 0
30 -25 -26 -27 -29 -31 -17 -18 19 -14 0
30 -25 -26 -27 -29 -31 -17 -18 -19 -14 0
-30 25 26 27 29 31 17 18 19 -14 0
-30 25 26 27 29 31 17 18 -19 -14 0
-30 25 26 27 29 31 17 -18 19 -14 0
-30 25 26 27 29 31 17 -18 -19 14 0
-30 25 26 27 29 31 -17 18 19 -14 0
-30 25 26 27 29 31 -17 18 -19 14 0
-30 25 26 27 29 31 -17 -18 19 14 0
-30 25 26 27 29 31 -17 -18 -19 14 0
-30 25 26 27 29 -31 17 18 19 -14 0
-30 25 26 27 29 -31 17 18 -19 14 0
-30 25 26 27 29 -31 17 -18 19 14 0
-30 25 26 27 29 -31 17 -18 -19 14 0
-30 25 26 27 29 -31 -17 18 19 14 0
-30 25 26 27 29 -31 -17 18 -19 14 0
-30 25 26 27 29 -31 -17 -18 19 14 0
-30 25 26 27 29 -31 -17 -18 -19 -14 0
-30 25 26 27 -29 31 17 18 19 -14 0
-30 25 26 27 -29 31 17 18 -19 14 0
-30 25 26 27 -29 31 17 -18 19 14 0
-30 25 26 27 -29 31 17 -18 -19 14 0
-30 25 26 27 -29 31 -17 18 19 14 0
-30 25 26 27 -29 31 -17 18 -19 14 0
-30 25 26 27 -29 31 -17 -18 19 14 0
-30 25 26 27 -29 31 -17 -18 -19 -14 0
-30 25 26 27 -29 -31 17 18 19 14 0
-30 25 26 27 -29 -31 17 18 -19 14 0
-30 25 26 27 -29 -31 17 -18 19 14 0
-30 25 26 27 -29 -31 17 -18 -19 -14 0
-30 25 26 27 -29 -31 -17 18 19 14 0
-30 25 26 27 -29 -31 -17 18 -19 -14 0
-30 25 26 27 -29 -31 -17 -18 19 -14 0
-30 25 26 27 -29 -31 -17 -18 -19 -14 0
-30 25 26 -27 29 31 17 18 19 -14 0
-30 25 26 -27 29 31 17 18 -19 14 0
-30 25 26 -27 29 31 17 -18 19 14 0
-30 25 26 -27 29 31 17 -18 -19 14 0
-30 25 26 -27 29 31 -17 18 19 14 0
-30 25 26 -27 29 31 -17 18 -19 14 0
-30 25 26 -27 29 31 -17 -18 19 14 0
-30 25 26 -27 29 31 -17 -18 -19 -14 0
-30 25 26 -27 29 -31 17 18 19 14 0
-30 25 26 -27 29 -31 17 18 -19 14 0
-30 25 26 -27 29 -31 17 -18 19 14 0
-30 25 26 -27 29 -31 17 -18 -19 -14 0
-30 25 26 -27 29 -31 -17 18 19 14 0
-30 25 26 -27 29 -31 -17 18 -19 -14 0
-30 25 26 -27 29 -31 -17 -18 19 -14 0
-30 25 26 -27 29 -31 -17 -18 -19 -14 0
-30 25 26 -27 -29 31 17 18 19 14 0
-30 25 26 -27 -29 31 17 18 -19 14 0
-30 25 26 -27 -29 31 17 -18 19 14 0
-30 25 26 -27 -29 31 17 -18 -19 -14 0
-30 25 26 -27 -29 31 -17 18 19 14 0
-30 25 26 -27 -29 31 -17 18 -19 -14 0
-30 25 26 -27 -29 31 -17 -18 19 -14 0
-30 25 26 -27 -29 31 -17 -18 -19 -14 0
-30 25 26 -27 -29 -31 17 18 19 14 0
-30 25 26 -27 -29 -31 17 18 -19 -14 0
-30 25 26 -27 -29 -31 17 -18 19 -14 0
-30 25 26 -27 -29 -31 17 -18 -19 -14 0
-30 25 26 -27 -29 -31 -17 18 19 -14 0
-30 25 26 -27 -29 -31 -17 18 -19 -14 0
-30 25 26 -27 -29 -31 -17 -18 19 -14 0
-30 25 26 -27 -29 -31 -17 -18 -19 -14 0
-30 25 -26 27 29 31 17 18 19 -14 0
-30 25 -26 27 29 31 17 18 -19 14 0
-30 25 -26 27 29 31 17 -18 19 14 0
-30 25 -26 27 29 31 17 -18 -19 14 0
-30 25 -26 27 29 31 -17 18 19 14 0
-30 25 -26 27 29 31 -17 18 -19 14 0
-30 25 -26 27 29 31 -17 -18 19 14 0
-30 25 -26 27 29 31 -17 -18 -19 -14 0
-30 25 -26 27 29 -31 17 18 19 14 0
-30 25 -26 27 29 -31 17 18 -19 14 0
-30 25 -26 27 29 -31 17 -18 19 14 0
-30 25 -26 27 29 -31 17 -18 -19 -14 0
-30 25 -26 27 29 -31 -17 18 19 14 0
-30 25 -26 27 29 -31 -17 18 -19 -14 0
-30 25 -26 27 29 -31 -17 -18 19 -14 0
-30 25 -26 27 29 -31 -17 -18 -19 -14 0
-30 25 -26 27 -29 31 17 18 19 14 0
-30 25 -26 27 -29 31 17 18 -19 14 0
-30 25 -26 27 -29 31 17 -18 19 14 0
-30 25 -26 27 -29 31 17 -18 -19 -14 0
-30 25 -26 27 -29 31 -17 18 19 14 0
-30 25 -26 27 -29 31 -17 18 -19 -14 0
-30 25 -26 27 -29 31 -17 -18 19 -14 0
-30 25 -26 27 -29 31 -17 -18 -19 -14 0
-30 25 -26 27 -29 -31 17 18 19 14 0
-30 25 -26 27 -29 -31 17 18 -19 -14 0
-30 25 -26 27 -29 -31 17 -18 19 -14 0
-30 25 -26 27 -29 -31 17 -18 -19 -14 0
-30 25 -26 27 -29 -31 -17 18 19 -14 0
-30 25 -26 27 -29 -31 -17 18 -19 -14 0
-30 25 -26 27 -29 -31 -17 -18 19 -14 0
-30 25 -26 27 -29 -31 -17 -18 -19 -14 0
-30 25 -26 -27 29 31 17 18 19 14 0
-30 25 -26 -27 29 31 17 18 -19 14 0
-30 25 -26 -27 29 31 17 -18 19 14 0
-30 25 -26 -27 29 31 17 -18 -19 -14 0
-30 25 -26 -27 29 31 -17 18 19 14 0
-30 25 -26 -27 29 31 -17 18 -19 -14 0
-30 25 -26 -27 29 31 -17 -18 19 -14 0
-30 25 -26 -27 29 31 -17 -18 -19 -14 0
-30 25 -26 -27 29 -31 17 18 19 14 0
-30 25 -26 -27 29 -31 17 18 -19 -14 0
-30 25 -26 -27 29 -31 17 -18 19 -14 0
-30 25 -26 -27 29 -31 17 -18 -19 -14 0
-30 25 -26 -27 29 -31 -17 18 19 -14 0
-30 25 -26 -27 29 -31 -17 18 -19 -14 0
-30 25 -26 -27 29 -31 -17 -18 19 -14 0
-30 25 -26 -27 29 -31 -17 -18 -19 -14 0
-30 25 -26 -27 -29 31 17 18 19 14 0
-30 25 -26 -27 -29 31 17 18 -19 -14 0
-30 25 -26 -27 -29 31 17 -18 19 -14 0
-30 25 -26 -27 -29 31 17 -18 -19 -14 0
-30 25 -26 -27 -29 31 -17 18 19 -14 0
-30 25 -26 -27 -29 31 -17 18 -19 -14 0
-30 25 -26 -27 -29 31 -17 -18 19 -14 0
-30 25 -26 -27 -29 31 -17 -18 -19 -14 0
-30 25 -26 -27 -29 -31 17 18 19 -14 0
-30 25 -26 -27 -29 -31 17 18 -19 -14 0
-30 25 -26 -27 -29 -31 17 -18 19 -14 0
-30 25 -26 -27 -29 -31 17 -18 -19 -14 0
-30 25 -26 -27 -29 -31 -17 18 19 -14 0
-30 25 -26 -27 -29 -31 -17 18 -19 -14 0
-30 25 -26 -27 -29 -31 -17 -18 19 -14 0
-30 25 -26 -27 -29 -31 -17 -18 -19 -14 0
-30 -25 26 27 29 31 17 18 19 -14 0
-30 -25 26 27 29 31 17 18 -19 14 0
-30 -25 26 27 29 31 17 -18 19 14 0
-30 -25 26 27 29 31 17 -18 -19 14 0
-30 -25 26 27 29 31 -17 18 19 14 0
-30 -25 26 27 29 31 -17 18 -19 14 0
-30 -25 26 27 29 31 -17 -18 19 14 0
-30 -25 26 27 29 31 -17 -18 -19 -14 0
-30 -25 26 27 29 -31 17 18 19 14 0
-30 -25 26 27 29 -31 17 18 -19 14 0
-30 -25 26 27 29 -31 17 -18 19 14 0
-30 -25 26 27 29 -31 17 -18 -19 -14 0
-30 -25 26 27 29 -31 -17 18 19 14 0
-30 -25 26 27 29 -31 -17 18 -19 -14 0
-30 -25 26 27 29 -31 -17 -18 19 -14 0
-30 -25 26 27 29 -31 -17 -18 -19 -14 0
-30 -25 26 27 -29 31 17 18 19 14 0
-30 -25 26 27 -29 31 17 18 -19 14 0
-30 -25 26 27 -29 31 17 -18 19 14 0
-30 -25 26 27 -29 31 17 -18 -19 -14 0
-30 -25 26 27 -29 31 -17 18 19 14 0
-30 -25 26 27 -29 31 -17 18 -19 -14 0
-30 -25 26 27 -29 31 -17 -18 19 -14 0
-30 -25 26 27 -29 31 -17 -18 -19 -14 0
-30 -25 26 27 -29 -31 17 18 19 14 0
-30 -25 26 27 -29 -31 17 18 -19 -14 0
-30 -25 26 27 -29 -31 17 -18 19 -14 0
-30 -25 26 27 -29 -31 17 -18 -19 -14 0
-30 -25 26 27 -29 -31 -17 18 19 -14 0
-30 -25 26 27 -29 -31 -17 18 -19 -14 0
-30 -25 26 27 -29 -31 -17 -18 19 -14 0
-30 -25 26 27 -29 -31 -17 -18 -19 -14 0
-30 -25 26 -27 29 31 17 18 19 14 0
-30 -25 26 -27 29 31 17 18 -19 14 0
-30 -25 26 -27 29 31 17 -18 19 14 0
-30 -25 26 -27 29 31 17 -18 -19 -14 0
-30 -25 26 -27 29 31 -17 18 19 14 0
-30 -25 26 -27 29 31 -17 18 -19 -14 0
-30 -25 26 -27 29 31 -17 -18 19 -14 0
-30 -25 26 -27 29 31 -17 -18 -19 -14 0
-30 -25 26 -27 29 -31 17 18 19 14 0
-30 -25 26 -27 29 -31 17 18 -19 -14 0
-30 -25 26 -27 29 -31 17 -18 19 -14 0
-30 -25 26 -27 29 -31 17 -18 -19 -14 0
-30 -25 26 -27 29 -31 -17 18 19 -14 0
-30 -25 26 -27 29 -31 -17 18 -19 -14 0
-30 -25 26 -27 29 -31 -17 -18 19 -14 0
-30 -25 26 -27 29 -31 -17 -18 -19 -14 0
-30 -25 26 -27 -29 31 17 18 19 14 0
-30 -25 26 -27 -29 31 17 18 -19 -14 0
-30 -25 26 -27 -29 31 17 -18 19 -14 0
-30 -25 26 -27 -29 31 17 -18 -19 -14 0
-30 -25 26 -27 -29 31 -17 18 19 -14 0
-30 -25 26 -27 -29 31 -17 18 -19 -14 0
-30 -25 26 -27 -29 31 -17 -18 19 -14 0
-30 -25 26 -27 -29 31 -17 -18 -19 -14 0
-30 -25 26 -27 -29 -31 17 18 19 -14 0
-30 -25 26 -27 -29 -31 17 18 -19 -14 0
-30 -25 26 -27 -29 -31 17 -18 19 -14 0
-30 -25 26 -27 -29 -31 17 -18 -19 -14 0
-30 -25 26 -27 -29 -31 -17 18 19 -14 0
-30 -25 26 -27 -29 -31 -17 18 -19 -14 0
-30 -25 26 -27 -29 -31 -17 -18 19 -14 0
-30 -25 26 -27 -29 -31 -17 -18 -19 -14 0
-30 -25 -26 27 29 31 17 18 19 14 0
-30 -25 -26 27 29 31 17 18 -19 14 0
-30 -25 -26 27 29 31 17 -18 19 14 0
-30 -25 -26 27 29 31 17 -18 -19 -14 0
-30 -25 -26 27 29 31 -17 18 19 14 0
-30 -25 -26 27 29 31 -17 18 -19 -14 0
-30 -25 -26 27 29 31 -17 -18 19 -14 0
-30 -25 -26 27 29 31 -17 -18 -19 -14 0
-30 -25 -26 27 29 -31 17 18 19 14 0
-30 -25 -26 27 29 -31 17 18 -19 -14 0
-30 -25 -26 27 29 -31 17 -18 19 -14 0
-30 -25 -26 27 29 -31 17 -18 -19 -14 0
-30 -25 -26 27 29 -31 -17 18 19 -14 0
-30 -25 -26 27 29 -31 -17 18 -19 -14 0
-30 -25 -26 27 29 -31 -17 -18 19 -14 0
-30 -25 -26 27 29 -31 -17 -18 -19 -14 0
-30 -25 -26 27 -29 31 17 18 19 14 0
-30 -25 -26 27 -29 31 17 18 -19 -14 0
-30 -25 -26 27 -29 31 17 -18 19 -14 0
-30 -25 -26 27 -29 31 17 -18 -19 -14 0
-30 -25 -26 27 -29 31 -17 18 19 -14 0
-30 -25 -26 27 -29 31 -17 18 -19 -14 0
-30 -25 -26 27 -29 31 -17 -18 19 -14 0
-30 -25 -26 27 -29 31 -17 -18 -19 -14 0
-30 -25 -26 27 -29 -31 17 18 19 -14 0
-30 -25 -26 27 -29 -31 17 18 -19 -14 0
-30 -25 -26 27 -29 -31 17 -18 19 -14 0
-30 -25 -26 27 -29 -31 17 -18 -19 -14 0
-30 -25 -26 27 -29 -31 -17 18 19 -14 0
-30 -25 -26 27 -29 -31 -17 18 -19 -14 0
-30 -25 -26 27 -29 -31 -17 -18 19 -14 0
-30 -25 -26 27 -29 -31 -17 -18 -19 -14 0
-30 -25 -26 -27 29 31 17 18 19 14 0
-30 -25 -26 -27 29 31 17 18 -19 -14 0
-30 -25 -26 -27 29 31 17 -18 19 -14 0
-30 -25 -26 -27 29 31 17 -18 -19 -14 0
-30 -25 -26 -27 29 31 -17 18 19 -14 0
-30 -25 -26 -27 29 31 -17 18 -19 -14 0
-30 -25 -26 -27 29 31 -17 -18 19 -14 0
-30 -25 -26 -27 29 31 -17 -18 -19 -14 0
-30 -25 -26 -27 29 -31 17 18 19 -14 0
-30 -25 -26 -27 29 -31 17 18 -19 -14 0
-30 -25 -26 -27 29 -31 17 -18 19 -14 0
-30 -25 -26 -27 29 -31 17 -18 -19 -14 0
-30 -25 -26 -27 29 -31 -17 18 19 -14 0
-30 -25 -26 -27 29 -31 -17 18 -19 -14 0
-30 -25 -26 -27 29 -31 -17 -18 19 -14 0
-30 -25 -26 -27 29 -31 -17 -18 -19 -14 0
-30 -25 -26 -27 -29 31 17 18 19 -14 0
-30 -25 -26 -27 -29 31 17 18 -19 -14 0
-30 -25 -26 -27 -29 31 17 -18 19 -14 0
-30 -25 -26 -27 -29 31 17 -18 -19 -14 0
-30 -25 -26 -27 -29 31 -17 18 19 -14 0
-30 -25 -26 -27 -29 31 -17 18 -19 -14 0
-30 -25 -26 -27 -29 31 -17 -18 19 -14 0
-30 -25 -26 -27 -29 31 -17 -18 -19 -14 0
-30 -25 -26 -27 -29 -31 17 18 19 -14 0
-30 -25 -26 -27 -29 -31 17 18 -19 -14 0
-30 -25 -26 -27 -29 -31 17 -18 19 -14 0
-30 -25 -26 -27 -29 -31 17 -18 -19 -14 0
-30 -25 -26 -27 -29 -31 -17 18 19 -14 0
-30 -25 -26 -27 -29 -31 -17 18 -19 -14 0
-30 -25 -26 -27 -29 -31 -17 -18 19 -14 0
-30 -25 -26 -27 -29 -31 -17 -18 -19 -14 0
31 26 27 28 30 32 18 19 20 -15 0
31 26 27 28 30 32 18 19 -20 -15 0
31 26 27 28 30 32 18 -19 20 -15 0
31 26 27 28 30 32 18 -19 -20 -15 0
31 26 27 28 30 32 -18 19 20 -15 0
31 26 27 28 30 32 -18 19 -20 -15 0
31 26 27 28 30 32 -18 -19 20 -15 0
31 26 27 28 30 32 -18 -19 -20 15 0
31 26 27 28 30 -32 18 19 20 -15 0
31 26 27 28 30 -32 18 19 -20 -15 0
31 26 27 28 30 -32 18 -19 20 -15 0
31 26 27 28 30 -32 18 -19 -20 15 0
31 26 27 28 30 -32 -18 19 20 -15 0
31 26 27 28 30 -32 -18 19 -20 15 0
31 26 27 28 30 -32 -18 -19 20 15 0
31 26 27 28 30 -32 -18 -19 -20 -15 0
31 26 27 28 -30 32 18 19 20 -15 0
31 26 27 28 -30 32 18 19 -20 -15 0
31 26 27 28 -30 32 18 -19 20 -15 0
31 26 27 28 -30 32 18 -19 -20 15 0
31 26 27 28 -30 32 -18 19 20 -15 0
31 26 27 28 -30 32 -18 19 -20 15 0
31 26 27 28 -30 32 -18 -19 20 15 0
31 26 27 28 -30 32 -18 -19 -20 -15 0
31 26 27 28 -30 -32 18 19 20 -15 0
31 26 27 28 -30 -32 18 19 -20 15 0
31 26 27 28 -30 -32 18 -19 20 15 0
31 26 27 28 -30 -32 18 -19 -20 -15 0
31 26 27 28 -30 -32 -18 19 20 15 0
31 26 27 28 -30 -32 -18 19 -20 -15 0
31 26 27 28 -30 -32 -18 -19 20 -15 0
31 26 27 28 -30 -32 -18 -19 -20 -15 0
31 26 27 -28 30 32 18 19 20 -15 0
31 26 27 -28 30 32 18 19 -20 -15 0
31 26 27 -28 30 32 18 -19 20 -15 0
31 26 27 -28 30 32 18 -19 -20 15 0
31 26 27 -28 30 32 -18 19 20 -15 0
31 26 27 -28 30 32 -18 19 -20 15 0
31 26 27 -28 30 32 -18 -19 20 15 0
31 26 27 -28 30 32 -18 -19 -20 -15 0
31 26 27 -28 30 -32 18 19 20 -15 0
31 26 27 -28 30 -32 18 19 -20 15 0
31 26 27 -28 30 -32 18 -19 20 15 0
31 26 27 -28 30 -32 18 -19 -20 -15 0
31 26 27 -28 30 -32 -18 19 20 15 0
31 26 27 -28 30 -32 -18 19 -20 -15 0
31 26 27 -28 30 -32 -18 -19 20 -15 0
31 26 27 -28 30 -32 -18 -19 -20 -15 0
31 26 27 -28 -30 32 18 19 20 -15 0
31 26 27 -28 -30 32 18 19 -20 15 0
31 26 27 -28 -30 32 18 -19 20 15 0
31 26 27 -28 -30 32 18 -19 -20 -15 0
31 26 27 -28 -30 32 -18 19 20 15 0
31 26 27 -28 -30 32 -18 19 -20 -15 0
31 26 27 -28 -30 32 -18 -19 20 -15 0
31 26 27 -28 -30 32 -18 -19 -20 -15 0
31 26 27 -28 -30 -32 18 19 20 15 0
31 26 27 -28 -30 -32 18 19 -20 -15 0
31 26 27 -28 -30 -32 18 -19 20 -15 0
31 26 27 -28 -30 -32 18 -19 -20 -15 0
31 26 27 -28 -30 -32 -18 19 20 -15 0
31 26 27 -28 -30 -32 -18 19 -20 -15 0
31 26 27 -28 -30 -32 -18 -19 20 -15 0
31 26 27 -28 -30 -32 -18 -19 -20 -15 0
31 26 -27 28 30 32 18 19 20 -15 0
31 26 -27 28 30 32 18 19 -20 -15 0
31 26 -27 28 30 32 18 -19 20 -15 0
31 26 -27 28 30 32 18 -19 -20 15 0
31 26 -27 28 30 32 -18 19 20 -15 0
31 26 -27 28 30 32 -18 19 -20 15 0
31 26 -27 28 30 32 -18 -19 20 15 0
31 26 -27 28 30 32 -18 -19 -20 -15 0
31 26 -27 28 30 -32 18 19 20 -15 0
31 26 -27 28 30 -32 18 19 -20 15 0
31 26 -27 28 30 -32 18 -19 20 15 0
31 26 -27 28 30 -32 18 -19 -20 -15 0
31 26 -27 28 30 -32 -18 19 20 15 0
31 26 -27 28 30 -32 -18 19 -20 -15 0
31 26 -27 28 30 -32 -18 -19 20 -15 0
31 26 -27 28 30 -32 -18 -19 -20 -15 0
31 26 -27 28 -30 32 18 19 20 -15 0
31 26 -27 28 -30 32 18 19 -20 15 0
31 26 -27 28 -30 32 18 -19 20 15 0
31 26 -27 28 -30 32 18 -19 -20 -15 0
31 26 -27 28 -30 32 -18 19 20 15 0
31 26 -27 28 -30 32 -18 19 -20 -15 0
31 26 -27 28 -30 32 -18 -19 20 -15 0
31 26 -27 28 -30 32 -18 -19 -20 -15 0
31 26 -27 28 -30 -32 18 19 20 15 0
31 26 -27 28 -30 -32 18 19 -20 -15 0
31 26 -27 28 -30 -32 18 -19 20 -15 0
31 26 -27 28 -30 -32 18 -19 -20 -15 0
31 26 -27 28 -30 -32 -18 19 20 -15 0
31 26 -27 28 -30 -32 -18 19 -20 -15 0
31 26 -27 28 -30 -32 -18 -19 20 -15 0
31 26 -27 28 -30 -32 -18 -19 -20 -15 0
31 26 -27 -28 30 32 18 19 20 -15 0
31 26 -27 -28 30 32 18 19 -20 15 0
31 26 -27 -28 30 32 18 -19 20 15 0
31 26 -27 -28 30 32 18 -19 -20 -15 0
31 26 -27 -28 30 32 -18 19 20 15 0
31 26 -27 -28 30 32 -18 19 -20 -15 0
31 26 -27 -28 30 32 -18 -19 20 -15 0
31 26 -27 -28 30 32 -18 -19 -20 -15 0
31 26 -27 -28 30 -32 18 19 20 15 0
31 26 -27 -28 30 -32 18 19 -20 -15 0
31 26 -27 -28 30 -32 18 -19 20 -15 0
31 26 -27 -28 30 -32 18 -19 -20 -15 0
31 26 -27 -28 30 -32 -18 19 20 -15 0
31 26 -27 -28 30 -32 -18 19 -20 -15 0
31 26 -27 -28 30 -32 -18 -19 20 -15 0
31 26 -27 -28 30 -32 -18 -19 -20 -15 0
31 26 -27 -28 -30 32 18 19 20 15 0
31 26 -27 -28 -30 32 18 19 -20 -15 0
31 26 -27 -28 -30 32 18 -19 20 -15 0
31 26 -27 -28 -30 32 18 -19 -20 -15 0
31 26 -27 -28 -30 32 -18 19 20 -15 0
31 26 -27 -28 -30 32 -18 19 -20 -15 0
31 26 -27 -28 -30 32 -18 -19 20 -15 0
31 26 -27 -28 -30 32 -18 -19 -20 -15 0
31 26 -27 -28 -30 -32 18 19 20 -15 0
31 26 -27 -28 -30 -32 18 19 -20 -15 0
31 26 -27 -28 -30 -32 18 -19 20 -15 0
31 26 -27 -28 -30 -32 18 -19 -20 -15 0
31 26 -27 -28 -30 -32 -18 19 20 -15 0
31 26 -27 -28 -30 -32 -18 19 -20 -15 0
31 26 -27 -28 -30 -32 -18 -19 20 -15 0
31 26 -27 -28 -30 -32 -18 -19 -20 -15 0
31 -26 27 28 30 32 18 19 20 -15 0
31 -26 27 28 30 32 18 19 -20 -15 0
31 -26 27 28 30 32 18 -19 20 -15 0
31 -26 27 28 30 32 18 -19 -20 15 0
31 -26 27 28 30 32 -18 19 20 -15 0
31 -26 27 28 30 32 -18 19 -20 15 0
31 -26 27 28 30 32 -18 -19 20 15 0
31 -26 27 28 30 32 -18 -19 -20 -15 0
31 -26 27 28 30 -32 18 19 20 -15 0
31 -26 27 28 30 -32 18 19 -20 15 0
31 -26 27 28 30 -32 18 -19 20 15 0
31 -26 27 28 30 -32 18 -19 -20 -15 0
31 -26 27 28 30 -32 -18 19 20 15 0
31 -26 27 28 30 -32 -18 19 -20 -15 0
31 -26 27 28 30 -32 -18 -19 20 -15 0
31 -26 27 28 30 -32 -18 -19 -20 -15 0
31 -26 27 28 -30 32 18 19 20 -15 0
31 -26 27 28 -30 32 18 19 -20 15 0
31 -26 27 28 -30 32 18 -19 20 15 0
31 -26 27 28 -30 32 18 -19 -20 -15 0
31 -26 27 28 -30 32 -18 19 20 15 0
31 -26 27 28 -30 32 -18 19 -20 -15 0
31 -26 27 28 -30 32 -18 -19 20 -15 0
31 -26 27 28 -30 32 -18 -19 -20 -15 0
31 -26 27 28 -30 -32 18 19 20 15 0
31 -26 27 28 -30 -32 18 19 -20 -15 0
31 -26 27 28 -30 -32 18 -19 20 -15 0
31 -26 27 28 -30 -32 18 -19 -20 -15 0
31 -26 27 28 -30 -32 -18 19 20 -15 0
31 -26 27 28 -30 -32 -18 19 -20 -15 0
31 -26 27 28 -30 -32 -18 -19 20 -15 0
31 -26 27 28 -30 -32 -18 -19 -20 -15 0
31 -26 27 -28 30 32 18 19 20 -15 0
31 -26 27 -28 30 32 18 19 -20 15 0
31 -26 27 -28 30 32 18 -19 20 15 0
31 -26 27 -28 30 32 18 -19 -20 -15 0
31 -26 27 -28 30 32 -18 19 20 15 0
31 -26 27 -28 30 32 -18 19 -20 -15 0
31 -26 27 -28 30 32 -18 -19 20 -15 0
31 -26 27 -28 30 32 -18 -19 -20 -15 0
31 -26 27 -28 30 -32 18 19 20 15 0
31 -26 27 -28 30 -32 18 19 -20 -15 0
31 -26 27 -28 30 -32 18 -19 20 -15 0
31 -26 27 -28 30 -32 18 -19 -20 -15 0
31 -26 27 -28 30 -32 -18 19 20 -15 0
31 -26 27 -28 30 -32 -18 19 -20 -15 0
31 -26 27 -28 30 -32 -18 -19 20 -15 0
31 -26 27 -28 30 -32 -18 -19 -20 -15 0
31 -26 27 -28 -30 32 18 19 20 15 0
31 -26 27 -28 -30 32 18 19 -20 -15 0
31 -26 27 -28 -30 32 18 -19 20 -15 0
31 -26 27 -28 -30 32 18 -19 -20 -15 0
31 -26 27 -28 -30 32 -18 19 20 -15 0
31 -26 27 -28 -30 32 -18 19 -20 -15 0
31 -26 27 -28 -30 32 -18 -19 20 -15 0
31 -26 27 -28 -30 32 -18 -19 -20 -15 0
31 -26 27 -28 -30 -32 18 19 20 -15 0
31 -26 27 -28 -30 -32 18 19 -20 -15 0
31 -26 27 -28 -30 -32 18 -19 20 -15 0
31 -26 27 -28 -30 -32 18 -19 -20 -15 0
31 -26 27 -28 -30 -32 -18 19 20 -15 0
31 -26 27 -28 -30 -32 -18 19 -20 -15 0
31 -26 27 -28 -30 -32 -18 -19 20 -15 0
31 -26 27 -28 -30 -32 -18 -19 -20 -15 0
31 -26 -27 28 30 32 18 19 20 -15 0
31 -26 -27 28 30 32 18 19 -20 15 0
31 -26 -27 28 30 32 18 -19 20 15 0
31 -26 -27 28 30 32 18 -19 -20 -15 0
31 -26 -27 28 30 32 -18 19 20 15 0
31 -26 -27 28 30 32 -18 19 -20 -15 0
31 -26 -27 28 30 32 -18 -19 20 -15 0
31 -26 -27 28 30 32 -18 -19 -20 -15 0
31 -26 -27 28 30 -32 18 19 20 15 0
31 -26 -27 28 30 -32 18 19 -20 -15 0
31 -26 -27 28 30 -32 18 -19 20 -15 0
31 -26 -27 28 30 -32 18 -19 -20 -15 0
31 -26 -27 28 30 -32 -18 19 20 -15 0
31 -26 -27 28 30 -32 -18 19 -20 -15 0
31 -26 -27 28 30 -32 -18 -19 20 -15 0
31 -26 -27 28 30 -32 -18 -19 -20 -15 0
31 -26 -27 28 -30 32 18 19 20 15 0
31 -26 -27 28 -30 32 18 19 -20 -15 0
31 -26 -27 28 -30 32 18 -19 20 -15 0
31 -26 -27 28 -30 32 18 -19 -20 -15 0
31 -26 -27 28 -30 32 -18 19 20 -15 0
31 -26 -27 28 -30 32 -18 19 -20 -15 0
31 -26 -27 28 -30 32 -18 -19 20 -15 0
31 -26 -27 28 -30 32 -18 -19 -20 -15 0
31 -26 -27 28 -30 -32 18 19 20 -15 0
31 -26 -27 28 -30 -32 18 19 -20 -15 0
31 -26 -27 28 -30 -32 18 -19 20 -15 0
31 -26 -27 28 -30 -32 18 -19 -20 -15 0
31 -26 -27 28 -30 -32 -18 19 20 -15 0
31 -26 -27 28 -30 -32 -18 19 -20 -15 0
31 -26 -27 28 -30 -32 -18 -19 20 -15 0
31 -26 -27 28 -30 -32 -18 -19 -20 -15 0
31 -26 -27 -28 30 32 18 19 20 15 0
31 -26 -27 -28 30 32 18 19 -20 -15 0
31 -26 -27 -28 30 32 18 -19 20 -15 0
31 -26 -27 -28 30 32 18 -19 -20 -15 0
31 -26 -27 -28 30 32 -18 19 20 -15 0
31 -26 -27 -28 30 32 -18 19 -20 -15 0
31 -26 -27 -28 30 32 -18 -19 20 -15 0
31 -26 -27 -28 30 32 -18 -19 -20 -15 0
31 -26 -27 -28 30 -32 18 19 20 -15 0
31 -26 -27 -28 30 -32 18 19 -20 -15 0
31 -26 -27 -28 30 -32 18 -19 20 -15 0
31 -26 -27 -28 30 -32 18 -19 -20 -15 0
31 -26 -27 -28 30 -32 -18 19 20 -15 0
31 -26 -27 -28 30 -32 -18 19 -20 -15 0
31 -26 -27 -28 30 -32 -18 -19 20 -15 0
31 -26 -27 -28 30 -32 -18 -19 -20 -15 0
31 -26 -27 -28 -30 32 18 19 20 -15 0
31 -26 -27 -28 -30 32 18 19 -20 -15 0
31 -26 -27 -28 -30 32 18 -19 20 -15 0
31 -26 -27 -28 -30 32 18 -19 -20 -15 0
31 -26 -27 -28 -30 32 -18 19 20 -15 0
31 -26 -27 -28 -30 32 -18 19 -20 -15 0
31 -26 -27 -28 -30 32 -18 -19 20 -15 0
31 -26 -27 -28 -30 32 -18 -19 -20 -15 0
31 -26 -27 -28 -30 -32 18 19 20 -15 0
31 -26 -27 -28 -30 -32 18 19 -20 -15 0
31 -26 -27 -28 -30 -32 18 -19 20 -15 0
31 -26 -27 -28 -30 -32 18 -19 -20 -15 0
31 -26 -27 -28 -30 -32 -18 19 20 -15 0
31 -26 -27 -28 -30 -32 -18 19 -20 -15 0
31 -26 -27 -28 -30 -32 -18 -19 20 -15 0
31 -26 -27 -28 -30 -32 -18 -19 -20 -15 0
-31 26 27 28 30 32 18 19 20 -15 0
-31 26 27 28 30 32 18 19 -20 -15 0
-31 26 27 28 30 32 18 -19 20 -15 0
-31 26 27 28 30 32 18 -19 -20 15 0
-31 26 27 28 30 32 -18 19 20 -15 0
-31 26 27 28 30 32 -18 19 -20 15 0
-31 26 27 28 30 32 -18 -19 20 15 0
-31 26 27 28 30 32 -18 -19 -20 15 0
-31 26 27 28 30 -32 18 19 20 -15 0
-31 26 27 28 30 -32 18 19 -20 15 0
-31 26 27 28 30 -32 18 -19 20 15 0
-31 26 27 28 30 -32 18 -19 -20 15 0
-31 26 27 28 30 -32 -18 19 20 15 0
-31 26 27 28 30 -32 -18 19 -20 15 0
-31 26 27 28 30 -32 -18 -19 20 15 0
-31 26 27 28 30 -32 -18 -19 -20 -15 0
-31 26 27 28 -30 32 18 19 20 -15 0
-31 26 27 28 -30 32 18 19 -20 15 0
-31 26 27 28 -30 32 18 -19 20 15 0
-31 26 27 28 -30 32 18 -19 -20 15 0
-31 26 27 28 -30 32 -18 19 20 15 0
-31 26 27 28 -30 32 -18 19 -20 15 0
-31 26 27 28 -30 32 -18 -19 20 15 0
-31 26 27 28 -30 32 -18 -19 -20 -15 0
-31 26 27 28 -30 -32 18 19 20 15 0
-31 26 27 28 -30 -32 18 19 -20 15 0
-31 26 27 28 -30 -32 18 -19 20 15 0
-31 26 27 28 -30 -32 18 -19 -20 -15 0
-31 26 27 28 -30 -32 -18 19 20 15 0
-31 26 27 28 -30 -32 -18 19 -20 -15 0
-31 26 27 28 -30 -32 -18 -19 20 -15 0
-31 26 27 28 -30 -32 -18 -19 -20 -15 0
-31 26 27 -28 30 32 18 19 20 -15 0
-31 26 27 -28 30 32 18 19 -20 15 0
-31 26 27 -28 30 32 18 -19 20 15 0
-31 26 27 -28 30 32 18 -19 -20 15 0
-31 26 27 -28 30 32 -18 19 20 15 0
-31 26 27 -28 30 32 -18 19 -20 15 0
-31 26 27 -28 30 32 -18 -19 20 15 0
-31 26 27 -28 30 32 -18 -19 -20 -15 0
-31 26 27 -28 30 -32 18 19 20 15 0
-31 26 27 -28 30 -32 18 19 -20 15 0
-31 26 27 -28 30 -32 18 -19 20 15 0
-31 26 27 -28 30 -32 18 -19 -20 -15 0
-31 26 27 -28 30 -32 -18 19 20 15 0
-31 26 27 -28 30 -32 -18 19 -20 -15 0
-31 26 27 -28 30 -32 -18 -19 20 -15 0
-31 26 27 -28 30 -32 -18 -19 -20 -15 0
-31 26 27 -28 -30 32 18 19 20 15 0
-31 26 27 -28 -30 32 18 19 -20 15 0
-31 26 27 -28 -30 32 18 -19 20 15 0
-31 26 27 -28 -30 32 18 -19 -20 -15 0
-31 26 27 -28 -30 32 -18 19 20 15 0
-31 26 27 -28 -30 32 -18 19 -20 -15 0
-31 26 27 -28 -30 32 -18 -19 20 -15 0
-31 26 27 -28 -30 32 -18 -19 -20 -15 0
-31 26 27 -28 -30 -32 18 19 20 15 0
-31 26 27 -28 -30 -32 18 19 -20 -15 0
-31 26 27 -28 -30 -32 18 -19 20 -15 0
-31 26 27 -28 -30 -32 18 -19 -20 -15 0
-31 26 27 -28 -30 -32 -18 19 20 -15 0
-31 26 27 -28 -30 -32 -18 19 -20 -15 0
-31 26 27 -28 -30 -32 -18 -19 20 -15 0
-31 26 27 -28 -30 -32 -18 -19 -20 -15 0
-31 26 -27 28 30 32 18 19 20 -15 0
-31 26 -27 28 30 32 18 19 -20 15 0
-31 26 -27 28 30 32 18 -19 20 15 0
-31 26 -27 28 30 32 18 -19 -20 15 0
-31 26 -27 28 30 32 -18 19 20 15 0
-31 26 -27 28 30 32 -18 19 -20 15 0
-31 26 -27 28 30 32 -18 -19 20 15 0
-31 26 -27 28 30 32 -18 -19 -20 -15 0
-31 26 -27 28 30 -32 18 19 20 15 0
-31 26 -27 28 30 -32 18 19 -20 15 0
-31 26 -27 28 30 -32 18 -19 20 15 0
-31 26 -27 28 30 -32 18 -19 -20 -15 0
-31 26 -27 28 30 -32 -18 19 20 15 0
-31 26 -27 28 30 -32 -18 19 -20 -15 0
-31 26 -27 28 30 -32 -18 -19 20 -15 0
-31 26 -27 28 30 -32 -18 -19 -20 -15 0
-31 26 -27 28 -30 32 18 19 20 15 0
-31 26 -27 28 -30 32 18 19 -20 15 0
-31 26 -27 28 -30 32 18 -19 20 15 0
-31 26 -27 28 -30 32 18 -19 -20 -15 0
-31 26 -27 28 -30 32 -18 19 20 15 0
-31 26 -27 28 -30 32 -18 19 -20 -15 0
-31 26 -27 28 -30 32 -18 -19 20 -15 0
-31 26 -27 28 -30 32 -18 -19 -20 -15 0
-31 26 -27 28 -30 -32 18 19 20 15 0
-31 26 -27 28 -30 -32 18 19 -20 -15 0
-31 26 -27 28 -30 -32 18 -19 20 -15 0
-31 26 -27 28 -30 -32 18 -19 -20 -15 0
-31 26 -27 28 -30 -32 -18 19 20 -15 0
-31 26 -27 28 -30 -32 -18 19 -20 -15 0
-31 26 -27 28 -30 -32 -18 -19 20 -15 0
-31 26 -27 28 -30 -32 -18 -19 -20 -15 0
-31 26 -27 -28 30 32 18 19 20 15 0
-31 26 -27 -28 30 32 18 19 -20 15 0
-31 26 -27 -28 30 32 18 -19 20 15 0
-31 26 -27 -28 30 32 18 -19 -20 -15 0
-31 26 -27 -28 30 32 -18 19 20 15 0
-31 26 -27 -28 30 32 -18 19 -20 -15 0
-31 26 -27 -28 30 32 -18 -19 20 -15 0
-31 26 -27 -28 30 32 -18 -19 -20 -15 0
-31 26 -27 -28 30 -32 18 19 20 15 0
-31 26 -27 -28 30 -32 18 19 -20 -15 0
-31 26 -27 -28 30 -32 18 -19 20 -15 0
-31 26 -27 -28 30 -32 18 -19 -20 -15 0
-31 26 -27 -28 30 -32 -18 19 20 -15 0
-31 26 -27 -28 30 -32 -18 19 -20 -15 0
-31 26 -27 -28 30 -32 -18 -19 20 -15 0
-31 26 -27 -28 30 -32 -18 -19 -20 -15 0
-31 26 -27 -28 -30 32 18 19 20 15 0
-31 26 -27 -28 -30 32 18 19 -20 -15 0
-31 26 -27 -28 -30 32 18 -19 20 -15 0
-31 26 -27 -28 -30 32 18 -19 -20 -15 0
-31 26 -27 -28 -30 32 -18 19 20 -15 0
-31 26 -27 -28 -30 32 -18 19 -20 -15 0
-31 26 -27 -28 -30 32 -18 -19 20 -15 0
-31 26 -27 -28 -30 32 -18 -19 -20 -15 0
-31 26 -27 -28 -30 -32 18 19 20 -15 0
-31 26 -27 -28 -30 -32 18 19 -20 -15 0
-31 26 -27 -28 -30 -32 18 -19 20 -15 0
-31 26 -27 -28 -30 -32 18 -19 -20 -15 0
-31 26 -27 -28 -30 -32 -18 19 20 -15 0
-31 26 -27 -28 -30 -32 -18 19 -20 -15 0
-31 26 -27 -28 -30 -32 -18 -19 20 -15 0
-31 26 -27 -28 -30 -32 -18 -19 -20 -15 0
-31 -26 27 28 30 32 18 19 20 -15 0
-31 -26 27 28 30 32 18 19 -20 15 0
-31 -26 27 28 30 32 18 -19 20 15 0
-31 -26 27 28 30 32 18 -19 -20 15 0
-31 -26 27 28 30 32 -18 19 20 15 0
-31 -26 27 28 30 32 -18 19 -20 15 0
-31 -26 27 28 30 32 -18 -19 20 15 0
-31 -26 27 28 30 32 -18 -19 -20 -15 0
-31 -26 27 28 30 -32 18 19 20 15 0
-31 -26 27 28 30 -32 18 19 -20 15 0
-31 -26 27 28 30 -32 18 -19 20 15 0
-31 -26 27 28 30 -32 18 -19 -20 -15 0
-31 -26 27 28 30 -32 -18 19 20 15 0
-31 -26 27 28 30 -32 -18 19 -20 -15 0
-31 -26 27 28 30 -32 -18 -19 20 -15 0
-31 -26 27 28 30 -32 -18 -19 -20 -15 0
-31 -26 27 28 -30 32 18 19 20 15 0
-31 -26 27 28 -30 32 18 19 -20 15 0
-31 -26 27 28 -30 32 18 -19 20 15 0
-31 -26 27 28 -30 32 18 -19 -20 -15 0
-31 -26 27 28 -30 32 -18 19 20 15 0
-31 -26 27 28 -30 32 -18 19 -20 -15 0
-31 -26 27 28 -30 32 -18 -19 20 -15 0
-31 -26 27 28 -30 32 -18 -19 -20 -15 0
-31 -26 27 28 -30 -32 18 19 20 15 0
-31 -26 27 28 -30 -32 18 19 -20 -15 0
-31 -26 27 28 -30 -32 18 -19 20 -15 0
-31 -26 27 28 -30 -32 18 -19 -20 -15 0
-31 -26 27 28 -30 -32 -18 19 20 -15 0
-31 -26 27 28 -30 -32 -18 19 -20 -15 0
-31 -26 27 28 -30 -32 -18 -19 20 -15 0
-31 -26 27 28 -30 -32 -18 -19 -20 -15 0
-31 -26 27 -28 30 32 18 19 20 15 0
-31 -26 27 -28 30 32 18 19 -20 15 0
-31 -26 27 -28 30 32 18 -19 20 15 0
-31 -26 27 -28 30 32 18 -19 -20 -15 0
-31 -26 27 -28 30 32 -18 19 20 15 0
-31 -26 27 -28 30 32 -18 19 -20 -15 0
-31 -26 27 -28 30 32 -18 -19 20 -15 0
-31 -26 27 -28 30 32 -18 -19 -20 -15 0
-31 -26 27 -28 30 -32 18 19 20 15 0
-31 -26 27 -28 30 -32 18 19 -20 -15 0
-31 -26 27 -28 30 -32 18 -19 20 -15 0
-31 -26 27 -28 30 -32 18 -19 -20 -15 0
-31 -26 27 -28 30 -32 -18 19 20 -15 0
-31 -26 27 -28 30 -32 -18 19 -20 -15 0
-31 -26 27 -28 30 -32 -18 -19 20 -15 0
-31 -26 27 -28 30 -32 -18 -19 -20 -15 0
-31 -26 27 -28 -30 32 18 19 20 15 0
-31 -26 27 -28 -30 32 18 19 -20 -15 0
-31 -26 27 -28 -30 32 18 -19 20 -15 0
-31 -26 27 -28 -30 32 18 -19 -20 -15 0
-31 -26 27 -28 -30 32 -18 19 20 -15 0
-31 -26 27 -28 -30 32 -18 19 -20 -15 0
-31 -26 27 -28 -30 32 -18 -19 20 -15 0
-31 -26 27 -28 -30 32 -18 -19 -20 -15 0
-31 -26 27 -28 -30 -32 18 19 20 -15 0
-31 -26 27 -28 -30 -32 18 19 -20 -15 0
-31 -26 27 -28 -30 -32 18 -19 20 -15 0
-31 -26 27 -28 -30 -32 18 -19 -20 -15 0
-31 -26 27 -28 -30 -32 -18 19 20 -15 0
-31 -26 27 -28 -30 -32 -18 19 -20 -15 0
-31 -26 27 -28 -30 -32 -18 -19 20 -15 0
-31 -26 27 -28 -30 -32 -18 -19 -20 -15 0
-31 -26 -27 28 30 32 18 19 20 15 0
-31 -26 -27 28 30 32 18 19 -20 15 0
-31 -26 -27 28 30 32 18 -19 20 15 0
-31 -26 -27 28 30 32 18 -19 -20 -15 0
-31 -26 -27 28 30 32 -18 19 20 15 0
-31 -26 -27 28 30 32 -18 19 -20 -15 0
-31 -26 -27 28 30 32 -18 -19 20 -15 0
-31 -26 -27 28 30 32 -18 -19 -20 -15 0
-31 -26 -27 28 30 -32 18 19 20 15 0
-31 -26 -27 28 30 -32 18 19 -20 -15 0
-31 -26 -27 28 30 -32 18 -19 20 -15 0
-31 -26 -27 28 30 -32 18 -19 -20 -15 0
-31 -26 -27 28 30 -32 -18 19 20 -15 0
-31 -26 -27 28 30 -32 -18 19 -20 -15 0
-31 -26 -27 28 30 -32 -18 -19 20 -15 0
-31 -26 -27 28 30 -32 -18 -19 -20 -15 0
-31 -26 -27 28 -30 32 18 19 20 15 0
-31 -26 -27 28 -30 32 18 19 -20 -15 0
-31 -26 -27 28 -30 32 18 -19 20 -15 0
-31 -26 -27 28 -30 32 18 -19 -20 -15 0
-31 -26 -27 28 -30 32 -18 19 20 -15 0
-31 -26 -27 28 -30 32 -18 19 -20 -15 0
-31 -26 -27 28 -30 32 -18 -19 20 -15 0
-31 -26 -27 28 -30 32 -18 -19 -20 -15 0
-31 -26 -27 28 -30 -32 18 19 20 -15 0
-31 -26 -27 28 -30 -32 18 19 -20 -15 0
-31 -26 -27 28 -30 -32 18 -19 20 -15 0
-31 -26 -27 28 -30 -32 18 -19 -20 -15 0
-31 -26 -27 28 -30 -32 -18 19 20 -15 0
-31 -26 -27 28 -30 -32 -18 19 -20 -15 0
-31 -26 -27 28 -30 -32 -18 -19 20 -15 0
-31 -26 -27 28 -30 -32 -18 -19 -20 -15 0
-31 -26 -27 -28 30 32 18 19 20 15 0
-31 -26 -27 -28 30 32 18 19 -20 -15 0
-31 -26 -27 -28 30 32 18 -19 20 -15 0
-31 -26 -27 -28 30 32 18 -19 -20 -15 0
-31 -26 -27 -28 30 32 -18 19 20 -15 0
-31 -26 -27 -28 30 32 -18 19 -20 -15 0
-31 -26 -27 -28 30 32 -18 -19 20 -15 0
-31 -26 -27 -28 30 32 -18 -19 -20 -15 0
-31 -26 -27 -28 30 -32 18 19 20 -15 0
-31 -26 -27 -28 30 -32 18 19 -20 -15 0
-31 -26 -27 -28 30 -32 18 -19 20 -15 0
-31 -26 -27 -28 30 -32 18 -19 -20 -15 0
-31 -26 -27 -28 30 -32 -18 19 20 -15 0
-31 -26 -27 -28 30 -32 -18 19 -20 -15 0
-31 -26 -27 -28 30 -32 -18 -19 20 -15 0
-31 -26 -27 -28 30 -32 -18 -19 -20 -15 0
-31 -26 -27 -28 -30 32 18 19 20 -15 0
-31 -26 -27 -28 -30 32 18 19 -20 -15 0
-31 -26 -27 -28 -30 32 18 -19 20 -15 0
-31 -26 -27 -28 -30 32 18 -19 -20 -15 0
-31 -26 -27 -28 -30 32 -18 19 20 -15 0
-31 -26 -27 -28 -30 32 -18 19 -20 -15 0
-31 -26 -27 -28 -30 32 -18 -19 20 -15 0
-31 -26 -27 -28 -30 32 -18 -19 -20 -15 0
-31 -26 -27 -28 -30 -32 18 19 20 -15 0
-31 -26 -27 -28 -30 -32 18 19 -20 -15 0
-31 -26 -27 -28 -30 -32 18 -19 20 -15 0
-31 -26 -27 -28 -30 -32 18 -19 -20 -15 0
-31 -26 -27 -28 -30 -32 -18 19 20 -15 0
-31 -26 -27 -28 -30 -32 -18 19 -20 -15 0
-31 -26 -27 -28 -30 -32 -18 -19 20 -15 0
-31 -26 -27 -28 -30 -32 -18 -19 -20 -15 0
32 27 28 25 31 29 19 20 17 -16 0
32 27 28 25 31 29 19 20 -17 -16 0
32 27 28 25 31 29 19 -20 17 -16 0
32 27 28 25 31 29 19 -20 -17 -16 0
32 27 28 25 31 29 -19 20 17 -16 0
32 27 28 25 31 29 -19 20 -17 -16 0
32 27 28 25 31 29 -19 -20 17 -16 0
32 27 28 25 31 29 -19 -20 -17 16 0
32 27 28 25 31 -29 19 20 17 -16 0
32 27 28 25 31 -29 19 20 -17 -16 0
32 27 28 25 31 -29 19 -20 17 -16 0
32 27 28 25 31 -29 19 -20 -17 16 0
32 27 28 25 31 -29 -19 20 17 -16 0
32 27 28 25 31 -29 -19 20 -17 16 0
32 27 28 25 31 -29 -19 -20 17 16 0
32 27 28 25 31 -29 -19 -20 -17 -16 0
32 27 28 25 -31 29 19 20 17 -16 0
32 27 28 25 -31 29 19 20 -17 -16 0
32 27 28 25 -31 29 19 -20 17 -16 0
32 27 28 25 -31 29 19 -20 -17 16 0
32 27 28 25 -31 29 -19 20 17 -16 0
32 27 28 25 -31 29 -19 20 -17 16 0
32 27 28 25 -31 29 -19 -20 17 16 0
32 27 28 25 -31 29 -19 -20 -17 -16 0
32 27 28 25 -31 -29 19 20 17 -16 0
32 27 28 25 -31 -29 19 20 -17 16 0
32 27 28 25 -31 -29 19 -20 17 16 0
32 27 28 25 -31 -29 19 -20 -17 -16 0
32 27 28 25 -31 -29 -19 20 17 16 0
32 27 28 25 -31 -29 -19 20 -17 -16 0
32 27 28 25 -31 -29 -19 -20 17 -16 0
32 27 28 25 -31 -29 -19 -20 -17 -16 0
32 27 28 -25 31 29 19 20 17 -16 0
32 27 28 -25 31 29 19 20 -17 -16 0
32 27 28 -25 31 29 19 -20 17 -16 0
32 27 28 -25 31 29 19 -20 -17 16 0
32 27 28 -25 31 29 -19 20 17 -16 0
32 27 28 -25 31 29 -19 20 -17 16 0
32 27 28 -25 31 29 -19 -20 17 16 0
32 27 28 -25 31 29 -19 -20 -17 -16 0
32 27 28 -25 31 -29 19 20 17 -16 0
32 27 28 -25 31 -29 19 20 -17 16 0
32 27 28 -25 31 -29 19 -20 17 16 0
32 27 28 -25 31 -29 19 -20 -17 -16 0
32 27 28 -25 31 -29 -19 20 17 16 0
32 27 28 -25 31 -29 -19 20 -17 -16 0
32 27 28 -25 31 -29 -19 -20 17 -16 0
32 27 28 -25 31 -29 -19 -20 -17 -16 0
32 27 28 -25 -31 29 19 20 17 -16 0
32 27 28 -25 -31 29 19 20 -17 16 0
32 27 28 -25 -31 29 19 -20 17 16 0
32 27 28 -25 -31 29 19 -20 -17 -16 0
32 27 28 -25 -31 29 -19 20 17 16 0
32 27 28 -25 -31 29 -19 20 -17 -16 0
32 27 28 -25 -31 29 -19 -20 17 -16 0
32 27 28 -25 -31 29 -19 -20 -17 -16 0
32 27 28 -25 -31 -29 19 20 17 16 0
32 27 28 -25 -31 -29 19 20 -17 -16 0
32 27 28 -25 -31 -29 19 -20 17 -16 0
32 27 28 -25 -31 -29 19 -20 -17 -16 0
32 27 28 -25 -31 -29 -19 20 17 -16 0
32 27 28 -25 -31 -29 -19 20 -17 -16 0
32 27 28 -25 -31 -29 -19 -20 17 -16 0
32 27 28 -25 -31 -29 -19 -20 -17 -16 0
32 27 -28 25 31 29 19 20 17 -16 0
32 27 -28 25 31 29 19 20 -17 -16 0
32 27 -28 25 31 29 19 -20 17 -16 0
32 27 -28 25 31 29 19 -20 -17 16 0
32 27 -28 25 31 29 -19 20 17 -16 0
32 27 -28 25 31 29 -19 20 -17 16 0
32 27 -28 25 31 29 -19 -20 17 16 0
32 27 -28 25 31 29 -19 -20 -17 -16 0
32 27 -28 25 31 -29 19 20 17 -16 0
32 27 -28 25 31 -29 19 20 -17 16 0
32 27 -28 25 31 -29 19 -20 17 16 0
32 27 -28 25 31 -29 19 -20 -17 -16 0
32 27 -28 25 31 -29 -19 20 17 16 0
32 27 -28 25 31 -29 -19 20 -17 -16 0
32 27 -28 25 31 -29 -19 -20 17 -16 0
32 27 -28 25 31 -29 -19 -20 -17 -16 0
32 27 -28 25 -31 29 19 20 17 -16 0
32 27 -28 25 -31 29 19 20 -17 16 0
32 27 -28 25 -31 29 19 -20 17 16 0
32 27 -28 25 -31 29 19 -20 -17 -16 0
32 27 -28 25 -31 29 -19 20 17 16 0
32 27 -28 25 -31 29 -19 20 -17 -16 0
32 27 -28 25 -31 29 -19 -20 17 -16 0
32 27 -28 25 -31 29 -19 -20 -17 -16 0
32 27 -28 25 -31 -29 19 20 17 16 0
32 27 -28 25 -31 -29 19 20 -17 -16 0
32 27 -28 25 -31 -29 19 -20 17 -16 0
32 27 -28 25 -31 -29 19 -20 -17 -16 0
32 27 -28 25 -31 -29 -19 20 17 -16 0
32 27 -28 25 -31 -29 -19 20 -17 -16 0
32 27 -28 25 -31 -29 -19 -20 17 -16 0
32 27 -28 25 -31 -29 -19 -20 -17 -16 0
32 27 -28 -25 31 29 19 20 17 -16 0
32 27 -28 -25 31 29 19 20 -17 16 0
32 27 -28 -25 31 29 19 -20 17 16 0
32 27 -28 -25 31 29 19 -20 -17 -16 0
32 27 -28 -25 31 29 -19 20 17 16 0
32 27 -28 -25 31 29 -19 20 -17 -16 0
32 27 -28 -25 31 29 -19 -20 17 -16 0
32 27 -28 -25 31 29 -19 -20 -17 -16 0
32 27 -28 -25 31 -29 19 20 17 16 0
32 27 -28 -25 31 -29 19 20 -17 -16 0
32 27 -28 -25 31 -29 19 -20 17 -16 0
32 27 -28 -25 31 -29 19 -20 -17 -16 0
32 27 -28 -25 31 -29 -19 20 17 -16 0
32 27 -28 -25 31 -29 -19 20 -17 -16 0
32 27 -28 -25 31 -29 -19 -20 17 -16 0
32 27 -28 -25 31 -29 -19 -20 -17 -16 0
32 27 -28 -25 -31 29 19 20 17 16 0
32 27 -28 -25 -31 29 19 20 -17 -16 0
32 27 -28 -25 -31 29 19 -20 17 -16 0
32 27 -28 -25 -31 29 19 -20 -17 -16 0
32 27 -28 -25 -31 29 -19 20 17 -16 0
32 27 -28 -25 -31 29 -19 20 -17 -16 0
32 27 -28 -25 -31 29 -19 -20 17 -16 0
32 27 -28 -25 -31 29 -19 -20 -17 -16 0
32 27 -28 -25 -31 -29 19 20 17 -16 0
32 27 -28 -25 -31 -29 19 20 -17 -16 0
32 27 -28 -25 -31 -29 19 -20 17 -16 0
32 27 -28 -25 -31 -29 19 -20 -17 -16 0
32 27 -28 -25 -31 -29 -19 20 17 -16 0
32 27 -28 -25 -31 -29 -19 20 -17 -16 0
32 27 -28 -25 -31 -29 -19 -20 17 -16 0
32 27 -28 -25 -31 -29 -19 -20 -17 -16 0
32 -27 28 25 31 29 19 20 17 -16 0
32 -27 28 25 31 29 19 20 -17 -16 0
32 -27 28 25 31 29 19 -20 17 -16 0
32 -27 28 25 31 29 19 -20 -17 16 0
32 -27 28 25 31 29 -19 20 17 -16 0
32 -27 28 25 31 29 -19 20 -17 16 0
32 -27 28 25 31 29 -19 -20 17 16 0
32 -27 28 25 31 29 -19 -20 -17 -16 0
32 -27 28 25 31 -29 19 20 17 -16 0
32 -27 28 25 31 -29 19 20 -17 16 0
32 -27 28 25 31 -29 19 -20 17 16 0
32 -27 28 25 31 -29 19 -20 -17 -16 0
32 -27 28 25 31 -29 -19 20 17 16 0
32 -27 28 25 31 -29 -19 20 -17 -16 0
32 -27 28 25 31 -29 -19 -20 17 -16 0
32 -27 28 25 31 -29 -19 -20 -17 -16 0
32 -27 28 25 -31 29 19 20 17 -16 0
32 -27 28 25 -31 29 19 20 -17 16 0
32 -27 28 25 -31 29 19 -20 17 16 0
32 -27 28 25 -31 29 19 -20 -17 -16 0
32 -27 28 25 -31 29 -19 20 17 16 0
32 -27 28 25 -31 29 -19 20 -17 -16 0
32 -27 28 25 -31 29 -19 -20 17 -16 0
32 -27 28 25 -31 29 -19 -20 -17 -16 0
32 -27 28 25 -31 -29 19 20 17 16 0
32 -27 28 25 -31 -29 19 20 -17 -16 0
32 -27 28 25 -31 -29 19 -20 17 -16 0
32 -27 28 25 -31 -29 19 -20 -17 -16 0
32 -27 28 25 -31 -29 -19 20 17 -16 0
32 -27 28 25 -31 -29 -19 20 -17 -16 0
32 -27 28 25 -31 -29 -19 -20 17 -16 0
32 -27 28 25 -31 -29 -19 -20 -17 -16 0
32 -27 28 -25 31 29 19 20 17 -16 0
32 -27 28 -25 31 29 19 20 -17 16 0
32 -27 28 -25 31 29 19 -20 17 16 0
32 -27 28 -25 31 29 19 -20 -17 -16 0
32 -27 28 -25 31 29 -19 20 17 16 0
32 -27 28 -25 31 29 -19 20 -17 -16 0
32 -27 28 -25 31 29 -19 -20 17 -16 0
32 -27 28 -25 31 29 -19 -20 -17 -16 0
32 -27 28 -25 31 -29 19 20 17 16 0
32 -27 28 -25 31 -29 19 20 -17 -16 0
32 -27 28 -25 31 -29 19 -20 17 -16 0
32 -27 28 -25 31 -29 19 -20 -17 -16 0
32 -27 28 -25 31 -29 -19 20 17 -16 0
32 -27 28 -25 31 -29 -19 20 -17 -16 0
32 -27 28 -25 31 -29 -19 -20 17 -16 0
32 -27 28 -25 31 -29 -19 -20 -17 -16 0
32 -27 28 -25 -31 29 19 20 17 16 0
32 -27 28 -25 -31 29 19 20 -17 -16 0
32 -27 28 -25 -31 29 19 -20 17 -16 0
32 -27 28 -25 -31 29 19 -20 -17 -16 0
32 -27 28 -25 -31 29 -19 20 17 -16 0
32 -27 28 -25 -31 29 -19 20 -17 -16 0
32 -27 28 -25 -31 29 -19 -20 17 -16 0
32 -27 28 -25 -31 29 -19 -20 -17 -16 0
32 -27 28 -25 -31 -29 19 20 17 -16 0
32 -27 28 -25 -31 -29 19 20 -17 -16 0
32 -27 28 -25 -31 -29 19 -20 17 -16 0
32 -27 28 -25 -31 -29 19 -20 -17 -16 0
32 -27 28 -25 -31 -29 -19 20 17 -16 0
32 -27 28 -25 -31 -29 -19 20 -17 -16 0
32 -27 28 -25 -31 -29 -19 -20 17 -16 0
32 -27 28 -25 -31 -29 -19 -20 -17 -16 0
32 -27 -28 25 31 29 19 20 17 -16 0
32 -27 -28 25 31 29 19 20 -17 16 0
32 -27 -28 25 31 29 19 -20 17 16 0
32 -27 -28 25 31 29 19 -20 -17 -16 0
32 -27 -28 25 31 29 -19 20 17 16 0
32 -27 -28 25 31 29 -19 20 -17 -16 0
32 -27 -28 25 31 29 -19 -20 17 -16 0
32 -27 -28 25 31 29 -19 -20 -17 -16 0
32 -27 -28 25 31 -29 19 20 17 16 0
32 -27 -28 25 31 -29 19 20 -17 -16 0
32 -27 -28 25 31 -29 19 -20 17 -16 0
32 -27 -28 25 31 -29 19 -20 -17 -16 0
32 -27 -28 25 31 -29 -19 20 17 -16 0
32 -27 -28 25 31 -29 -19 20 -17 -16 0
32 -27 -28 25 31 -29 -19 -20 17 -16 0
32 -27 -28 25 31 -29 -19 -20 -17 -16 0
32 -27 -28 25 -31 29 19 20 17 16 0
32 -27 -28 25 -31 29 19 20 -17 -16 0
32 -27 -28 25 -31 29 19 -20 17 -16 0
32 -27 -28 25 -31 29 19 -20 -17 -16 0
32 -27 -28 25 -31 29 -19 20 17 -16 0
32 -27 -28 25 -31 29 -19 20 -17 -16 0
32 -27 -28 25 -31 29 -19 -20 17 -16 0
32 -27 -28 25 -31 29 -19 -20 -17 -16 0
32 -27 -28 25 -31 -29 19 20 17 -16 0
32 -27 -28 25 -31 -29 19 20 -17 -16 0
32 -27 -28 25 -31 -29 19 -20 17 -16 0
32 -27 -28 25 -31 -29 19 -20 -17 -16 0
32 -27 -28 25 -31 -29 -19 20 17 -16 0
32 -27 -28 25 -31 -29 -19 20 -17 -16 0
32 -27 -28 25 -31 -29 -19 -20 17 -16 0
32 -27 -28 25 -31 -29 -19 -20 -17 -16 0
32 -27 -28 -25 31 29 19 20 17 16 0
32 -27 -28 -25 31 29 19 20 -17 -16 0
32 -27 -28 -25 31 29 19 -20 17 -16 0
32 -27 -28 -25 31 29 19 -20 -17 -16 0
32 -27 -28 -25 31 29 -19 20 17 -16 0
32 -27 -28 -25 31 29 -19 20 -17 -16 0
32 -27 -28 -25 31 29 -19 -20 17 -16 0
32 -27 -28 -25 31 29 -19 -20 -17 -16 0
32 -27 -28 -25 31 -29 19 20 17 -16 0
32 -27 -28 -25 31 -29 19 20 -17 -16 0
32 -27 -28 -25 31 -29 19 -20 17 -16 0
32 -27 -28 -25 31 -29 19 -20 -17 -16 0
32 -27 -28 -25 31 -29 -19 20 17 -16 0
32 -27 -28 -25 31 -29 -19 20 -17 -16 0
32 -27 -28 -25 31 -29 -19 -20 17 -16 0
32 -27 -28 -25 31 -29 -19 -20 -17 -16 0
32 -27 -28 -25 -31 29 19 20 17 -16 0
32 -27 -28 -25 -31 29 19 20 -17 -16 0
32 -27 -28 -25 -31 29 19 -20 17 -16 0
32 -27 -28 -25 -31 29 19 -20 -17 -16 0
32 -27 -28 -25 -31 29 -19 20 17 -16 0
32 -27 -28 -25 -31 29 -19 20 -17 -16 0
32 -27 -28 -25 -31 29 -19 -20 17 -16 0
32 -27 -28 -25 -31 29 -19 -20 -17 -16 0
32 -27 -28 -25 -31 -29 19 20 17 -16 0
32 -27 -28 -25 -31 -29 19 20 -17 -16 0
32 -27 -28 -25 -31 -29 19 -20 17 -16 0
32 -27 -28 -25 -31 -29 19 -20 -17 -16 0
32 -27 -28 -25 -31 -29 -19 20 17 -16 0
32 -27 -28 -25 -31 -29 -19 20 -17 -16 0
32 -27 -28 -25 -31 -29 -19 -20 17 -16 0
32 -27 -28 -25 -31 -29 -19 -20 -17 -16 0
-32 27 28 25 31 29 19 20 17 -16 0
-32 27 28 25 31 29 19 20 -17 -16 0
-32 27 28 25 31 29 19 -20 17 -16 0
-32 27 28 25 31 29 19 -20 -17 16 0
-32 27 28 25 31 29 -19 20 17 -16 0
-32 27 28 25 31 29 -19 20 -17 16 0
-32 27 28 25 31 29 -19 -20 17 16 0
-32 27 28 25 31 29 -19 -20 -17 16 0
-32 27 28 25 31 -29 19 20 17 -16 0
-32 27 28 25 31 -29 19 20 -17 16 0
-32 27 28 25 31 -29 19 -20 17 16 0
-32 27 28 25 31 -29 19 -20 -17 16 0
-32 27 28 25 31 -29 -19 20 17 16 0
-32 27 28 25 31 -29 -19 20 -17 16 0
-32 27 28 25 31 -29 -19 -20 17 16 0
-32 27 28 25 31 -29 -19 -20 -17 -16 0
-32 27 28 25 -31 29 19 20 17 -16 0
-32 27 28 25 -31 29 19 20 -17 16 0
-32 27 28 25 -31 29 19 -20 17 16 0
-32 27 28 25 -31 29 19 -20 -17 16 0
-32 27 28 25 -31 29 -19 20 17 16 0
-32 27 28 25 -31 29 -19 20 -17 16 0
-32 27 28 25 -31 29 -19 -20 17 16 0
-32 27 28 25 -31 29 -19 -20 -17 -16 0
-32 27 28 25 -31 -29 19 20 17 16 0
-32 27 28 25 -31 -29 19 20 -17 16 0
-32 27 28 25 -31 -29 19 -20 17 16 0
-32 27 28 25 -31 -29 19 -20 -17 -16 0
-32 27 28 25 -31 -29 -19 20 17 16 0
-32 27 28 25 -31 -29 -19 20 -17 -16 0
-32 27 28 25 -31 -29 -19 -20 17 -16 0
-32 27 28 25 -31 -29 -19 -20 -17 -16 0
-32 27 28 -25 31 29 19 20 17 -16 0
-32 27 28 -25 31 29 19 20 -17 16 0
-32 27 28 -25 31 29 19 -20 17 16 0
-32 27 28 -25 31 29 19 -20 -17 16 0
-32 27 28 -25 31 29 -19 20 17 16 0
-32 27 28 -25 31 29 -19 20 -17 16 0
-32 27 28 -25 31 29 -19 -20 17 16 0
-32 27 28 -25 31 29 -19 -20 -17 -16 0
-32 27 28 -25 31 -29 19 20 17 16 0
-32 27 28 -25 31 -29 19 20 -17 16 0
-32 27 28 -25 31 -29 19 -20 17 16 0
-32 27 28 -25 31 -29 19 -20 -17 -16 0
-32 27 28 -25 31 -29 -19 20 17 16 0
-32 27 28 -25 31 -29 -19 20 -17 -16 0
-32 27 28 -25 31 -29 -19 -20 17 -16 0
-32 27 28 -25 31 -29 -19 -20 -17 -16 0
-32 27 28 -25 -31 29 19 20 17 16 0
-32 27 28 -25 -31 29 19 20 -17 16 0
-32 27 28 -25 -31 29 19 -20 17 16 0
-32 27 28 -25 -31 29 19 -20 -17 -16 0
-32 27 28 -25 -31 29 -19 20 17 16 0
-32 27 28 -25 -31 29 -19 20 -17 -16 0
-32 27 28 -25 -31 29 -19 -20 17 -16 0
-32 27 28 -25 -31 29 -19 -20 -17 -16 0
-32 27 28 -25 -31 -29 19 20 17 16 0
-32 27 28 -25 -31 -29 19 20 -17 -16 0
-32 27 28 -25 -31 -29 19 -20 17 -16 0
-32 27 28 -25 -31 -29 19 -20 -17 -16 0
-32 27 28 -25 -31 -29 -19 20 17 -16 0
-32 27 28 -25 -31 -29 -19 20 -17 -16 0
-32 27 28 -25 -31 -29 -19 -20 17 -16 0
-32 27 28 -25 -31 -29 -19 -20 -17 -16 0
-32 27 -28 25 31 29 19 20 17 -16 0
-32 27 -28 25 31 29 19 20 -17 16 0
-32 27 -28 25 31 29 19 -20 17 16 0
-32 27 -28 25 31 29 19 -20 -17 16 0
-32 27 -28 25 31 29 -19 20 17 16 0
-32 27 -28 25 31 29 -19 20 -17 16 0
-32 27 -28 25 31 29 -19 -20 17 16 0
-32 27 -28 25 31 29 -19 -20 -17 -16 0
-32 27 -28 25 31 -29 19 20 17 16 0
-32 27 -28 25 31 -29 19 20 -17 16 0
-32 27 -28 25 31 -29 19 -20 17 16 0
-32 27 -28 25 31 -29 19 -20 -17 -16 0
-32 27 -28 25 31 -29 -19 20 17 16 0
-32 27 -28 25 31 -29 -19 20 -17 -16 0
-32 27 -28 25 31 -29 -19 -20 17 -16 0
-32 27 -28 25 31 -29 -19 -20 -17 -16 0
-32 27 -28 25 -31 29 19 20 17 16 0
-32 27 -28 25 -31 29 19 20 -17 16 0
-32 27 -28 25 -31 29 19 -20 17 16 0
-32 27 -28 25 -31 29 19 -20 -17 -16 0
-32 27 -28 25 -31 29 -19 20 17 16 0
-32 27 -28 25 -31 29 -19 20 -17 -16 0
-32 27 -28 25 -31 29 -19 -20 17 -16 0
-32 27 -28 25 -31 29 -19 -20 -17 -16 0
-32 27 -28 25 -31 -29 19 20 17 16 0
-32 27 -28 25 -31 -29 19 20 -17 -16 0
-32 27 -28 25 -31 -29 19 -20 17 -16 0
-32 27 -28 25 -31 -29 19 -20 -17 -16 0
-32 27 -28 25 -31 -29 -19 20 17 -16 0
-32 27 -28 25 -31 -29 -19 20 -17 -16 0
-32 27 -28 25 -31 -29 -19 -20 17 -16 0
-32 27 -28 25 -31 -29 -19 -20 -17 -16 0
-32 27 -28 -25 31 29 19 20 17 16 0
-32 27 -28 -25 31 29 19 20 -17 16 0
-32 27 -28 -25 31 29 19 -20 17 16 0
-32 27 -28 -25 31 29 19 -20 -17 -16 0
-32 27 -28 -25 31 29 -19 20 17 16 0
-32 27 -28 -25 31 29 -19 20 -17 -16 0
-32 27 -28 -25 31 29 -19 -20 17 -16 0
-32 27 -28 -25 31 29 -19 -20 -17 -16 0
-32 27 -28 -25 31 -29 19 20 17 16 0
-32 27 -28 -25 31 -29 19 20 -17 -16 0
-32 27 -28 -25 31 -29 19 -20 17 -16 0
-32 27 -28 -25 31 -29 19 -20 -17 -16 0
-32 27 -28 -25 31 -29 -19 20 17 -16 0
-32 27 -28 -25 31 -29 -19 20 -17 -16 0
-32 27 -28 -25 31 -29 -19 -20 17 -16 0
-32 27 -28 -25 31 -29 -19 -20 -17 -16 0
-32 27 -28 -25 -31 29 19 20 17 16 0
-32 27 -28 -25 -31 29 19 20 -17 -16 0
-32 27 -28 -25 -31 29 19 -20 17 -16 0
-32 27 -28 -25 -31 29 19 -20 -17 -16 0
-32 27 -28 -25 -31 29 -19 20 17 -16 0
-32 27 -28 -25 -31 29 -19 20 -17 -16 0
-32 27 -28 -25 -31 29 -19 -20 17 -16 0
-32 27 -28 -25 -31 29 -19 -20 -17 -16 0
-32 27 -28 -25 -31 -29 19 20 17 -16 0
-32 27 -28 -25 -31 -29 19 20 -17 -16 0
-32 27 -28 -25 -31 -29 19 -20 17 -16 0
-32 27 -28 -25 -31 -29 19 -20 -17 -16 0
-32 27 -28 -25 -31 -29 -19 20 17 -16 0
-32 27 -28 -25 -31 -29 -19 20 -17 -16 0
-32 27 -28 -25 -31 -29 -19 -20 17 -16 0
-32 27 -28 -25 -31 -29 -19 -20 -17 -16 0
-32 -27 28 25 31 29 19 20 17 -16 0
-32 -27 28 25 31 29 19 20 -17 16 0
-32 -27 28 25 31 29 19 -20 17 16 0
-32 -27 28 25 31 29 19 -20 -17 16 0
-32 -27 28 25 31 29 -19 20 17 16 0
-32 -27 28 25 31 29 -19 20 -17 16 0
-32 -27 28 25 31 29 -19 -20 17 16 0
-32 -27 28 25 31 29 -19 -20 -17 -16 0
-32 -27 28 25 31 -29 19 20 17 16 0
-32 -27 28 25 31 -29 19 20 -17 16 0
-32 -27 28 25 31 -29 19 -20 17 16 0
-32 -27 28 25 31 -29 19 -20 -17 -16 0
-32 -27 28 25 31 -29 -19 20 17 16 0
-32 -27 28 25 31 -29 -19 20 -17 -16 0
-32 -27 28 25 31 -29 -19 -20 17 -16 0
-32 -27 28 25 31 -29 -19 -20 -17 -16 0
-32 -27 28 25 -31 29 19 20 17 16 0
-32 -27 28 25 -31 29 19 20 -17 16 0
-32 -27 28 25 -31 29 19 -20 17 16 0
-32 -27 28 25 -31 29 19 -20 -17 -16 0
-32 -27 28 25 -31 29 -19 20 17 16 0
-32 -27 28 25 -31 29 -19 20 -17 -16 0
-32 -27 28 25 -31 29 -19 -20 17 -16 0
-32 -27 28 25 -31 29 -19 -20 -17 -16 0
-32 -27 28 25 -31 -29 19 20 17 16 0
-32 -27 28 25 -31 -29 19 20 -17 -16 0
-32 -27 28 25 -31 -29 19 -20 17 -16 0
-32 -27 28 25 -31 -29 19 -20 -17 -16 0
-32 -27 28 25 -31 -29 -19 20 17 -16 0
-32 -27 28 25 -31 -29 -19 20 -17 -16 0
-32 -27 28 25 -31 -29 -19 -20 17 -16 0
-32 -27 28 25 -31 -29 -19 -20 -17 -16 0
-32 -27 28 -25 31 29 19 20 17 16 0
-32 -27 28 -25 31 29 19 20 -17 16 0
-32 -27 28 -25 31 29 19 -20 17 16 0
-32 -27 28 -25 31 29 19 -20 -17 -16 0
-32 -27 28 -25 31 29 -19 20 17 16 0
-32 -27 28 -25 31 29 -19 20 -17 -16 0
-32 -27 28 -25 31 29 -19 -20 17 -16 0
-32 -27 28 -25 31 29 -19 -20 -17 -16 0
-32 -27 28 -25 31 -29 19 20 17 16 0
-32 -27 28 -25 31 -29 19 20 -17 -16 0
-32 -27 28 -25 31 -29 19 -20 17 -16 0
-32 -27 28 -25 31 -29 19 -20 -17 -16 0
-32 -27 28 -25 31 -29 -19 20 17 -16 0
-32 -27 28 -25 31 -29 -19 20 -17 -16 0
-32 -27 28 -25 31 -29 -19 -20 17 -16 0
-32 -27 28 -25 31 -29 -19 -20 -17 -16 0
-32 -27 28 -25 -31 29 19 20 17 16 0
-32 -27 28 -25 -31 29 19 20 -17 -16 0
-32 -27 28 -25 -31 29 19 -20 17 -16 0
-32 -27 28 -25 -31 29 19 -20 -17 -16 0
-32 -27 28 -25 -31 29 -19 20 17 -16 0
-32 -27 28 -25 -31 29 -19 20 -17 -16 0
-32 -27 28 -25 -31 29 -19 -20 17 -16 0
-32 -27 28 -25 -31 29 -19 -20 -17 -16 0
-32 -27 28 -25 -31 -29 19 20 17 -16 0
-32 -27 28 -25 -31 -29 19 20 -17 -16 0
-32 -27 28 -25 -31 -29 19 -20 17 -16 0
-32 -27 28 -25 -31 -29 19 -20 -17 -16 0
-32 -27 28 -25 -31 -29 -19 20 17 -16 0
-32 -27 28 -25 -31 -29 -19 20 -17 -16 0
-32 -27 28 -25 -31 -29 -19 -20 17 -16 0
-32 -27 28 -25 -31 -29 -19 -20 -17 -16 0
-32 -27 -28 25 31 29 19 20 17 16 0
-32 -27 -28 25 31 29 19 20 -17 16 0
-32 -27 -28 25 31 29 19 -20 17 16 0
-32 -27 -28 25 31 29 19 -20 -17 -16 0
-32 -27 -28 25 31 29 -19 20 17 16 0
-32 -27 -28 25 31 29 -19 20 -17 -16 0
-32 -27 -28 25 31 29 -19 -20 17 -16 0
-32 -27 -28 25 31 29 -19 -20 -17 -16 0
-32 -27 -28 25 31 -29 19 20 17 16 0
-32 -27 -28 25 31 -29 19 20 -17 -16 0
-32 -27 -28 25 31 -29 19 -20 17 -16 0
-32 -27 -28 25 31 -29 19 -20 -17 -16 0
-32 -27 -28 25 31 -29 -19 20 17 -16 0
-32 -27 -28 25 31 -29 -19 20 -17 -16 0
-32 -27 -28 25 31 -29 -19 -20 17 -16 0
-32 -27 -28 25 31 -29 -19 -20 -17 -16 0
-32 -27 -28 25 -31 29 19 20 17 16 0
-32 -27 -28 25 -31 29 19 20 -17 -16 0
-32 -27 -28 25 -31 29 19 -20 17 -16 0
-32 -27 -28 25 -31 29 19 -20 -17 -16 0
-32 -27 -28 25 -31 29 -19 20 17 -16 0
-32 -27 -28 25 -31 29 -19 20 -17 -16 0
-32 -27 -28 25 -31 29 -19 -20 17 -16 0
-32 -27 -28 25 -31 29 -19 -20 -17 -16 0
-32 -27 -28 25 -31 -29 19 20 17 -16 0
-32 -27 -28 25 -31 -29 19 20 -17 -16 0
-32 -27 -28 25 -31 -29 19 -20 17 -16 0
-32 -27 -28 25 -31 -29 19 -20 -17 -16 0
-32 -27 -28 25 -31 -29 -19 20 17 -16 0
-32 -27 -28 25 -31 -29 -19 20 -17 -16 0
-32 -27 -28 25 -31 -29 -19 -20 17 -16 0
-32 -27 -28 25 -31 -29 -19 -20 -17 -16 0
-32 -27 -28 -25 31 29 19 20 17 16 0
-32 -27 -28 -25 31 29 19 20 -17 -16 0
-32 -27 -28 -25 31 29 19 -20 17 -16 0
-32 -27 -28 -25 31 29 19 -20 -17 -16 0
-32 -27 -28 -25 31 29 -19 20 17 -16 0
-32 -27 -28 -25 31 29 -19 20 -17 -16 0
-32 -27 -28 -25 31 29 -19 -20 17 -16 0
-32 -27 -28 -25 31 29 -19 -20 -17 -16 0
-32 -27 -28 -25 31 -29 19 20 17 -16 0
-32 -27 -28 -25 31 -29 19 20 -17 -16 0
-32 -27 -28 -25 31 -29 19 -20 17 -16 0
-32 -27 -28 -25 31 -29 19 -20 -17 -16 0
-32 -27 -28 -25 31 -29 -19 20 17 -16 0
-32 -27 -28 -25 31 -29 -19 20 -17 -16 0
-32 -27 -28 -25 31 -29 -19 -20 17 -16 0
-32 -27 -28 -25 31 -29 -19 -20 -17 -16 0
-32 -27 -28 -25 -31 29 19 20 17 -16 0
-32 -27 -28 -25 -31 29 19 20 -17 -16 0
-32 -27 -28 -25 -31 29 19 -20 17 -16 0
-32 -27 -28 -25 -31 29 19 -20 -17 -16 0
-32 -27 -28 -25 -31 29 -19 20 17 -16 0
-32 -27 -28 -25 -31 29 -19 20 -17 -16 0
-32 -27 -28 -25 -31 29 -19 -20 17 -16 0
-32 -27 -28 -25 -31 29 -19 -20 -17 -16 0
-32 -27 -28 -25 -31 -29 19 20 17 -16 0
-32 -27 -28 -25 -31 -29 19 20 -17 -16 0
-32 -27 -28 -25 -31 -29 19 -20 17 -16 0
-32 -27 -28 -25 -31 -29 19 -20 -17 -16 0
-32 -27 -28 -25 -31 -29 -19 20 17 -16 0
-32 -27 -28 -25 -31 -29 -19 20 -17 -16 0
-32 -27 -28 -25 -31 -29 -19 -20 17 -16 0
-32 -27 -28 -25 -31 -29 -19 -20 -17 -16 0
-33 1 17 0
-33 -1 -17 0
33 -1 17 0
33 1 -17 0
-34 2 18 0
-34 -2 -18 0
34 -2 18 0
34 2 -18 0
-35 3 19 0
-35 -3 -19 0
35 -3 19 0
35 3 -19 0
-36 4 20 0
-36 -4 -20 0
36 -4 20 0
36 4 -20 0
-37 5 21 0
-37 -5 -21 0
37 -5 21 0
37 5 -21 0
-38 6 22 0
-38 -6 -22 0
38 -6 22 0
38 6 -22 0
-39 7 23 0
-39 -7 -23 0
39 -7 23 0
39 7 -23 0
-40 8 24 0
-40 -8 -24 0
40 -8 24 0
40 8 -24 0
-41 9 25 0
-41 -9 -25 0
41 -9 25 0
41 9 -25 0
-42 10 26 0
-42 -10 -26 0
42 -10 26 0
42 10 -26 0
-43 11 27 0
-43 -11 -27 0
43 -11 27 0
43 11 -27 0
-44 12 28 0
-44 -12 -28 0
44 -12 28 0
44 12 -28 0
-45 13 29 0
-45 -13 -29 0
45 -13 29 0
45 13 -29 0
-46 14 30 0
-46 -14 -30 0
46 -14 30 0
46 14 -30 0
-47 15 31 0
-47 -15 -31 0
47 -15 31 0
47 15 -31 0
-48 16 32 0
-48 -16 -32 0
48 -16 32 0
48 16 -32 0
33 34 35 36 37 38 39 40 41 42 43 44 45 46 47 48 0
-1 -2 -3 0
-1 -2 -4 0
-1 -2 -5 0
-1 -2 -6 0
-1 -2 -7 0
-1 -2 -8 0
-1 -2 -9 0
-1 -2 -10 0
-1 -2 -11 0
-1 -2 -12 0
-1 -2 -13 0
-1 -2 -14 0
-1 -2 -15 0
-1 -2 -16 0
-1 -3 -4 0
-1 -3 -5 0
-1 -3 -6 0
-1 -3 -7 0
-1 -3 -8 0
-1 -3 -9 0
-1 -3 -10 0
-1 -3 -11 0
-1 -3 -12 0
-1 -3 -13 0
-1 -3 -14 0
-1 -3 -15 0
-1 -3 -16 0
-1 -4 -5 0
-1 -4 -6 0
-1 -4 -7 0
-1 -4 -8 0
-1 -4 -9 0
-1 -4 -10 0
-1 -4 -11 0
-1 -4 -12 0
-1 -4 -13 0
-1 -4 -14 0
-1 -4 -15 0
-1 -4 -16 0
-1 -5 -6 0
-1 -5 -7 0
-1 -5 -8 0
-1 -5 -9 0
-1 -5 -10 0
-1 -5 -11 0
-1 -5 -12 0
-1 -5 -13 0
-1 -5 -14 0
-1 -5 -15 0
-1 -5 -16 0
-1 -6 -7 0
-1 -6 -8 0
-1 -6 -9 0
-1 -6 -10 0
-1 -6 -11 0
-1 -6 -12 0
-1 -6 -13 0
-1 -6 -14 0
-1 -6 -15 0
-1 -6 -16 0
-1 -7 -8 0
-1 -7 -9 0
-1 -7 -10 0
-1 -7 -11 0
-1 -7 -12 0
-1 -7 -13 0
-1 -7 -14 0
-1 -7 -15 0
-1 -7 -16 0
-1 -8 -9 0
-1 -8 -10 0
-1 -8 -11 0
-1 -8 -12 0
-1 -8 -13 0
-1 -8 -14 0
-1 -8 -15 0
-1 -8 -16 0
-1 -9 -10 0
-1 -9 -11 0
-1 -9 -12 0
-1 -9 -13 0
-1 -9 -14 0
-1 -9 -15 0
-1 -9 -16 0
-1 -10 -11 0
-1 -10 -12 0
-1 -10 -13 0
-1 -10 -14 0
-1 -10 -15 0
-1 -10 -16 0
-1 -11 -12 0
-1 -11 -13 0
-1 -11 -14 0
-1 -11 -15 0
-1 -11 -16 0
-1 -12 -13 0
-1 -12 -14 0
-1 -12 -15 0
-1 -12 -16 0
-1 -13 -14 0
-1 -13 -15 0
-1 -13 -16 0
-1 -14 -15 0
-1 -14 -16 0
-1 -15 -16 0
-2 -3 -4 0
-2 -3 -5 0
-2 -3 -6 0
-2 -3 -7 0
-2 -3 -8 0
-2 -3 -9 0
-2 -3 -10 0
-2 -3 -11 0
-2 -3 -12 0
-2 -3 -13 0
-2 -3 -14 0
-2 -3 -15 0
-2 -3 -16 0
-2 -4 -5 0
-2 -4 -6 0
-2 -4 -7 0
-2 -4 -8 0
-2 -4 -9 0
-2 -4 -10 0
-2 -4 -11 0
-2 -4 -12 0
-2 -4 -13 0
-2 -4 -14 0
-2 -4 -15 0
-2 -4 -16 0
-2 -5 -6 0
-2 -5 -7 0
-2 -5 -8 0
-2 -5 -9 0
-2 -5 -10 0
-2 -5 -11 0
-2 -5 -12 0
-2 -5 -13 0
-2 -5 -14 0
-2 -5 -15 0
-2 -5 -16 0
-2 -6 -7 0
-2 -6 -8 0
-2 -6 -9 0
-2 -6 -10 0
-2 -6 -11 0
-2 -6 -12 0
-2 -6 -13 0
-2 -6 -14 0
-2 -6 -15 0
-2 -6 -16 0
-2 -7 -8 0
-2 -7 -9 0
-2 -7 -10 0
-2 -7 -11 0
-2 -7 -12 0
-2 -7 -13 0
-2 -7 -14 0
-2 -7 -15 0
-2 -7 -16 0
-2 -8 -9 0
-2 -8 -10 0
-2 -8 -11 0
-2 -8 -12 0
-2 -8 -13 0
-2 -8 -14 0
-2 -8 -15 0
-2 -8 -16 0
-2 -9 -10 0
-2 -9 -11 0
-2 -9 -12 0
-2 -9 -13 0
-2 -9 -14 0
-2 -9 -15 0
-2 -9 -16 0
-2 -10 -11 0
-2 -10 -12 0
-2 -10 -13 0
-2 -10 -14 0
-2 -10 -15 0
-2 -10 -16 0
-2 -11 -12 0
-2 -11 -13 0
-2 -11 -14 0
-2 -11 -15 0
-2 -11 -16 0
-2 -12 -13 0
-2 -12 -14 0
-2 -12 -15 0
-2 -12 -16 0
-2 -13 -14 0
-2 -13 -15 0
-2 -13 -16 0
-2 -14 -15 0
-2 -14 -16 0
-2 -15 -16 0
-3 -4 -5 0
-3 -4 -6 0
-3 -4 -7 0
-3 -4 -8 0
-3 -4 -9 0
-3 -4 -10 0
-3 -4 -11 0
-3 -4 -12 0
-3 -4 -13 0
-3 -4 -14 0
-3 -4 -15 0
-3 -4 -16 0
-3 -5 -6 0
-3 -5 -7 0
-3 -5 -8 0
-3 -5 -9 0
-3 -5 -10 0
-3 -5 -11 0
-3 -5 -12 0
-3 -5 -13 0
-3 -5 -14 0
-3 -5 -15 0
-3 -5 -16 0
-3 -6 -7 0
-3 -6 -8 0
-3 -6 -9 0
-3 -6 -10 0
-3 -6 -11 0
-3 -6 -12 0
-3 -6 -13 0
-3 -6 -14 0
-3 -6 -15 0
-3 -6 -16 0
-3 -7 -8 0
-3 -7 -9 0
-3 -7 -10 0
-3 -7 -11 0
-3 -7 -12 0
-3 -7 -13 0
-3 -7 -14 0
-3 -7 -15 0
-3 -7 -16 0
-3 -8 -9 0
-3 -8 -10 0
-3 -8 -11 0
-3 -8 -12 0
-3 -8 -13 0
-3 -8 -14 0
-3 -8 -15 0
-3 -8 -16 0
-3 -9 -10 0
-3 -9 -11 0
-3 -9 -12 0
-3 -9 -13 0
-3 -9 -14 0
-3 -9 -15 0
-3 -9 -16 0
-3 -10 -11 0
-3 -10 -12 0
-3 -10 -13 0
-3 -10 -14 0
-3 -10 -15 0
-3 -10 -16 0
-3 -11 -12 0
-3 -11 -13 0
-3 -11 -14 0
-3 -11 -15 0
-3 -11 -16 0
-3 -12 -13 0
-3 -12 -14 0
-3 -12 -15 0
-3 -12 -16 0
-3 -13 -14 0
-3 -13 -15 0
-3 -13 -16 0
-3 -14 -15 0
-3 -14 -16 0
-3 -15 -16 0
-4 -5 -6 0
-4 -5 -7 0
-4 -5 -8 0
-4 -5 -9 0
-4 -5 -10 0
-4 -5 -11 0
-4 -5 -12 0
-4 -5 -13 0
-4 -5 -14 0
-4 -5 -15 0
-4 -5 -16 0
-4 -6 -7 0
-4 -6 -8 0
-4 -6 -9 0
-4 -6 -10 0
-4 -6 -11 0
-4 -6 -12 0
-4 -6 -13 0
-4 -6 -14 0
-4 -6 -15 0
-4 -6 -16 0
-4 -7 -8 0
-4 -7 -9 0
-4 -7 -10 0
-4 -7 -11 0
-4 -7 -12 0
-4 -7 -13 0
-4 -7 -14 0
-4 -7 -15 0
-4 -7 -16 0
-4 -8 -9 0
-4 -8 -10 0
-4 -8 -11 0
-4 -8 -12 0
-4 -8 -13 0
-4 -8 -14 0
-4 -8 -15 0
-4 -8 -16 0
-4 -9 -10 0
-4 -9 -11 0
-4 -9 -12 0
-4 -9 -13 0
-4 -9 -14 0
-4 -9 -15 0
-4 -9 -16 0
-4 -10 -11 0
-4 -10 -12 0
-4 -10 -13 0
-4 -10 -14 0
-4 -10 -15 0
-4 -10 -16 0
-4 -11 -12 0
-4 -11 -13 0
-4 -11 -14 0
-4 -11 -15 0
-4 -11 -16 0
-4 -12 -13 0
-4 -12 -14 0
-4 -12 -15 0
-4 -12 -16 0
-4 -13 -14 0
-4 -13 -15 0
-4 -13 -16 0
-4 -14 -15 0
-4 -14 -16 0
-4 -15 -16 0
-5 -6 -7 0
-5 -6 -8 0
-5 -6 -9 0
-5 -6 -10 0
-5 -6 -11 0
-5 -6 -12 0
-5 -6 -13 0
-5 -6 -14 0
-5 -6 -15 0
-5 -6 -16 0
-5 -7 -8 0
-5 -7 -9 0
-5 -7 -10 0
-5 -7 -11 0
-5 -7 -12 0
-5 -7 -13 0
-5 -7 -14 0
-5 -7 -15 0
-5 -7 -16 0
-5 -8 -9 0
-5 -8 -10 0
-5 -8 -11 0
-5 -8 -12 0
-5 -8 -13 0
-5 -8 -14 0
-5 -8 -15 0
-5 -8 -16 0
-5 -9 -10 0
-5 -9 -11 0
-5 -9 -12 0
-5 -9 -13 0
-5 -9 -14 0
-5 -9 -15 0
-5 -9 -16 0
-5 -10 -11 0
-5 -10 -12 0
-5 -10 -13 0
-5 -10 -14 0
-5 -10 -15 0
-5 -10 -16 0
-5 -11 -12 0
-5 -11 -13 0
-5 -11 -14 0
-5 -11 -15 0
-5 -11 -16 0
-5 -12 -13 0
-5 -12 -14 0
-5 -12 -15 0
-5 -12 -16 0
-5 -13 -14 0
-5 -13 -15 0
-5 -13 -16 0
-5 -14 -15 0
-5 -14 -16 0
-5 -15 -16 0
-6 -7 -8 0
-6 -7 -9 0
-6 -7 -10 0
-6 -7 -11 0
-6 -7 -12 0
-6 -7 -13 0
-6 -7 -14 0
-6 -7 -15 0
-6 -7 -16 0
-6 -8 -9 0
-6 -8 -10 0
-6 -8 -11 0
-6 -8 -12 0
-6 -8 -13 0
-6 -8 -14 0
-6 -8 -15 0
-6 -8 -16 0
-6 -9 -10 0
-6 -9 -11 0
-6 -9 -12 0
-6 -9 -13 0
-6 -9 -14 0
-6 -9 -15 0
-6 -9 -16 0
-6 -10 -11 0
-6 -10 -12 0
-6 -10 -13 0
-6 -10 -14 0
-6 -10 -15 0
-6 -10 -16 0
-6 -11 -12 0
-6 -11 -13 0
-6 -11 -14 0
-6 -11 -15 0
-6 -11 -16 0
-6 -12 -13 0
-6 -12 -14 0
-6 -12 -15 0
-6 -12 -16 0
-6 -13 -14 0
-6 -13 -15 0
-6 -13 -16 0
-6 -14 -15 0
-6 -14 -16 0
-6 -15 -16 0
-7 -8 -9 0
-7 -8 -10 0
-7 -8 -11 0
-7 -8 -12 0
-7 -8 -13 0
-7 -8 -14 0
-7 -8 -15 0
-7 -8 -16 0
-7 -9 -10 0
-7 -9 -11 0
-7 -9 -12 0
-7 -9 -13 0
-7 -9 -14 0
-7 -9 -15 0
-7 -9 -16 0
-7 -10 -11 0
-7 -10 -12 0
-7 -10 -13 0
-7 -10 -14 0
-7 -10 -15 0
-7 -10 -16 0
-7 -11 -12 0
-7 -11 -13 0
-7 -11 -14 0
-7 -11 -15 0
-7 -11 -16 0
-7 -12 -13 0
-7 -12 -14 0
-7 -12 -15 0
-7 -12 -16 0
-7 -13 -14 0
-7 -13 -15 0
-7 -13 -16 0
-7 -14 -15 0
-7 -14 -16 0
-7 -15 -16 0
-8 -9 -10 0
-8 -9 -11 0
-8 -9 -12 0
-8 -9 -13 0
-8 -9 -14 0
-8 -9 -15 0
-8 -9 -16 0
-8 -10 -11 0
-8 -10 -12 0
-8 -10 -13 0
-8 -10 -14 0
-8 -10 -15 0
-8 -10 -16 0
-8 -11 -12 0
-8 -11 -13 0
-8 -11 -14 0
-8 -11 -15 0
-8 -11 -16 0
-8 -12 -13 0
-8 -12 -14 0
-8 -12 -15 0
-8 -12 -16 0
-8 -13 -14 0
-8 -13 -15 0
-8 -13 -16 0
-8 -14 -15 0
-8 -14 -16 0
-8 -15 -16 0
-9 -10 -11 0
-9 -10 -12 0
-9 -10 -13 0
-9 -10 -14 0
-9 -10 -15 0
-9 -10 -16 0
-9 -11 -12 0
-9 -11 -13 0
-9 -11 -14 0
-9 -11 -15 0
-9 -11 -16 0
-9 -12 -13 0
-9 -12 -14 0
-9 -12 -15 0
-9 -12 -16 0
-9 -13 -14 0
-9 -13 -15 0
-9 -13 -16 0
-9 -14 -15 0
-9 -14 -16 0
-9 -15 -16 0
-10 -11 -12 0
-10 -11 -13 0
-10 -11 -14 0
-10 -11 -15 0
-10 -11 -16 0
-10 -12 -13 0
-10 -12 -14 0
-10 -12 -15 0
-10 -12 -16 0
-10 -13 -14 0
-10 -13 -15 0
-10 -13 -16 0
-10 -14 -15 0
-10 -14 -16 0
-10 -15 -16 0
-11 -12 -13 0
-11 -12 -14 0
-11 -12 -15 0
-11 -12 -16 0
-11 -13 -14 0
-11 -13 -15 0
-11 -13 -16 0
-11 -14 -15 0
-11 -14 -16 0
-11 -15 -16 0
-12 -13 -14 0
-12 -13 -15 0
-12 -13 -16 0
-12 -14 -15 0
-12 -14 -16 0
-12 -15 -16 0
-13 -14 -15 0
-13 -14 -16 0
-13 -15 -16 0
-14 -15 -16 0
